20000
475204 116756
370679 743624
509933 467537
419147 730628
612642 260000
80129 862224
51571 181745
373273 741755
364942 739779
373698 740334
113400 399775
365764 735957
423221 558291
431127 548165
612782 65904
731316 507143
845237 297210
443507 534050
779805 208616
518423 454701
877813 213986
435315 533602
565205 561219
432526 549404
632455 276459
368738 740880
247550 273328
72515 230869
172599 586194
610761 269895
437254 549552
182846 889669
685150 151672
634795 238005
756936 921978
809419 233334
674592 154549
851885 192261
690140 324827
736110 345274
729027 214222
661335 235074
556832 509082
364136 742986
504240 441953
635154 239720
729809 285055
581588 404579
943239 656270
446105 531084
943815 587031
357688 677575
707217 141729
649471 354292
141498 852070
246917 476137
454229 401401
296334 159755
171337 622458
827458 130193
365999 739389
362914 740674
753013 266543
615049 116362
59256 251267
596464 303564
355987 350014
372999 741416
185586 576534
712822 129598
442180 531394
291889 144217
423871 557316
370939 742848
687110 83947
829487 190557
217213 601542
367144 741932
368919 742193
821927 214392
867403 208723
303074 129767
367370 740290
805289 181406
395460 424480
667198 283069
912410 792431
856595 913570
60852 732787
473715 114810
713154 176033
713879 179181
811971 242161
787529 273283
227820 243409
664770 108103
757587 205093
374167 738219
203580 93651
194905 90825
424389 548234
383504 701642
97667 282047
848742 565625
64034 204034
776105 226008
733425 477656
841415 214723
367530 743214
715851 236691
909480 645582
901534 898386
368164 738074
264487 132712
411676 712336
419004 557845
779589 239229
760120 295200
422232 555173
640645 241822
76763 216401
698529 254688
115330 795456
363787 742821
426720 557724
696610 298014
830245 802374
369742 744999
148706 439576
636393 239761
763528 308954
385298 403671
850663 178159
933958 546816
441638 535537
433755 530886
104226 376368
368670 740857
907247 183007
83004 881595
207029 588438
207326 198761
500817 361893
16504 223028
731294 498263
722582 283045
949391 567570
476353 115387
300446 134657
704238 280149
170565 109494
907627 646573
422460 558420
210685 144332
635628 241297
887352 546310
668988 109940
92147 420775
654525 118360
837701 277273
655635 285257
361021 739942
124859 608879
477118 121519
747885 494980
371994 739455
636739 240729
845535 216929
651573 297058
162249 81427
436847 561760
73318 656088
333636 422638
607102 344072
654155 131318
701665 221481
363672 741993
780822 231026
287777 168054
368626 742115
61995 194333
332214 191894
198946 128007
361443 741733
761685 200079
349129 678413
369124 738437
422603 554171
593865 219058
364564 739639
689157 304362
200685 105122
409664 429268
676004 100351
682003 233499
49432 215751
352146 231149
989464 666074
323756 157373
232153 866087
856604 194248
362274 741655
309803 151779
372666 744626
700402 268230
168652 500188
740200 251439
730114 271247
429403 550638
612882 360405
236512 50366
226448 59045
831877 273694
637244 239396
636529 118079
890492 368145
426494 549188
742154 118135
122019 216210
813288 349230
367645 740549
88404 245525
867784 195436
825624 136464
737023 480478
268739 517526
321629 132679
596124 251048
799667 223649
381316 485621
195719 161460
40009 69146
807050 242881
816218 224937
401114 429300
655276 277343
207225 593093
832624 200550
325536 593275
346233 684704
254956 75573
620177 206959
425404 557987
830125 204507
144969 801963
875420 192887
372989 745110
830234 398750
363609 679348
292572 467083
404426 556306
427124 550866
364410 740969
403181 735841
598648 274344
823003 247869
313730 157388
488747 445206
367087 741754
853661 195231
478278 446673
63038 226652
655654 100441
655652 128456
878387 200252
81682 204544
371843 741039
699215 288451
371115 740279
372169 740782
370115 740031
665922 242031
269867 141482
671459 268400
62322 210137
637993 113062
643002 317607
43294 220198
355120 705314
604656 297989
424684 553223
118976 677658
442109 553498
912334 651473
371740 743286
342556 377225
368565 744494
324431 157863
657050 286416
371470 737764
368559 742753
532714 801041
253217 184422
369914 738639
367598 740620
368567 741987
394862 433855
18375 929042
678838 331648
65697 195355
635525 238030
358443 673903
557241 802277
316680 372103
371774 741877
631987 243525
827321 128678
691060 327927
299817 578433
427696 544433
634445 57405
636922 80347
782817 112580
241797 554105
885829 137090
421334 554168
247325 526494
85869 667419
198510 93849
63845 247297
853978 759002
395807 424757
41845 220164
100682 199092
407095 723989
660243 288155
946636 116616
724300 324640
267046 485224
422481 916847
909685 645445
363696 739297
865214 197788
439281 548803
678481 70547
633255 236774
688069 223330
421202 544943
978575 576446
738127 172433
659340 88595
234458 95754
816293 230586
368078 744207
847605 202136
913102 647546
223423 101989
731955 474149
367888 739104
911182 655734
612922 538511
515608 437688
370054 740885
697583 237465
781932 228651
369518 737471
368955 740114
271978 404049
367977 735947
801785 420382
663138 133111
395899 753258
3983 641168
912575 648579
627272 131838
973343 71012
688815 297660
33883 247175
55412 243185
58362 206057
462690 760083
635892 238721
223867 28475
620370 286664
326323 286956
305533 988268
288693 245977
422381 555530
418468 556485
78744 946567
367988 739224
23466 776666
372587 743656
54647 656608
364925 738376
702772 224400
170075 501647
566529 347781
788931 242556
897432 598859
797324 213469
221805 592116
684293 295190
683090 293803
168595 501141
706082 267374
699427 255864
830430 817367
635154 314650
614986 158699
663463 281048
911835 648090
191864 604760
313256 167400
745640 276882
407152 719665
909616 598339
118036 655962
652311 147854
821683 255003
367839 736911
851736 233145
688404 244632
365023 738809
913095 645168
402104 434552
167945 503158
436992 553018
665851 103993
920569 760437
538246 388792
272332 435265
633755 236502
677694 59548
658665 318027
204924 114217
746504 270356
287177 481432
176851 250128
207124 603079
472220 340922
17778 198433
722445 311441
664513 13656
279353 126078
113197 674929
185468 873381
421158 551435
73201 127467
729495 287811
864658 203886
958090 648492
359446 689912
709086 269536
398661 434621
939593 599472
427254 544157
285986 130657
911794 653088
769341 267722
107500 213721
369187 739116
354581 605934
448603 530516
858820 228969
368785 742294
39651 618824
852259 623339
517325 526608
370755 739389
104719 815426
472404 110104
843218 212129
667172 222430
635013 331833
103815 156545
814718 994611
433324 556679
818155 246623
399682 427570
724656 266616
225094 588283
766168 186802
894807 532195
664487 253820
911370 649428
827144 167614
929372 733087
826037 240551
622720 56981
397297 437609
66965 222835
404633 425227
684594 102705
587444 90432
370031 740882
430609 550772
441328 531921
559686 449921
52004 244781
97063 851367
697412 289142
908157 647139
419566 550526
600266 111040
675713 261359
370600 741719
734931 510690
655927 257881
412853 559208
361634 741711
50220 235076
641239 166317
370406 741558
649757 281439
774180 228596
911152 651087
441404 530277
644811 276796
788054 232614
651375 279309
711712 252878
438367 554990
647421 128656
580324 402089
298505 125103
370392 741900
726148 262143
683520 96318
101916 202869
109447 602808
178598 600324
56276 232213
292208 137786
454836 530124
750875 176453
757793 652723
644909 292257
370764 743867
660237 101232
810874 233640
400018 717790
18172 192639
727322 91243
634556 243281
370272 740965
167412 502781
296475 118994
428106 552032
182681 153118
644602 117209
373489 740438
373863 741614
585701 905300
513106 436178
40669 225846
372070 739564
665940 300995
396753 431169
204331 96990
61329 233518
731917 497798
369210 742454
426056 558871
725784 302068
369554 744675
359288 680340
968821 406316
169335 502420
39064 256578
823733 271598
830398 127591
404020 428060
839855 209689
424445 351836
902264 561680
775886 247912
432080 689184
708653 356338
168495 504276
169469 502667
683345 134222
644674 2735
368826 746803
422748 546021
826563 131042
634829 240950
861025 188592
366317 739118
825802 399249
366541 739227
638897 243578
798008 194691
125890 810631
617930 252319
623178 106763
368968 737610
367690 743075
753444 252491
868970 883124
913537 651936
837287 216523
63783 199697
910461 650734
151242 891951
433574 527475
530852 456882
368866 737021
779381 240225
118803 701355
937205 54807
198033 589390
367668 741588
774115 268851
468813 109458
710544 269628
828778 133118
797468 235816
667693 183969
604661 542385
202309 450178
420364 552018
682244 256894
64606 197736
986552 384123
807093 226727
664554 106602
581930 236245
726279 62156
727165 318192
634149 235925
698410 280654
105793 864502
436322 748119
372109 739344
852598 206540
781808 778330
650467 285760
671271 103286
110821 809853
423230 545978
669509 300843
46538 225969
716274 270441
367653 740445
198129 109968
928647 651613
450134 531104
75305 125459
367063 740805
308390 121226
171377 138833
921708 635124
55848 77037
647343 348057
305739 146040
364420 741279
518664 355404
584692 96944
713850 982394
909874 644972
840813 210032
975675 579946
469400 287901
213560 222875
603045 323983
614227 235641
535298 444956
399591 430540
223345 74000
354799 691490
369157 738444
430338 548186
739341 207649
395979 427250
94913 207263
275397 487577
860218 137867
638139 268315
912411 363855
725068 349158
825217 245283
826856 246767
613842 310589
403177 434663
433351 548161
69122 247878
180442 77158
665495 96071
681033 95769
632591 119699
368892 739889
396991 587096
734132 494888
207467 580624
9212 555661
740216 16979
801548 278251
49842 213607
448245 533987
94892 232975
404350 755298
199915 605830
840564 603327
58337 214364
75928 191903
655901 109786
257147 161372
543699 467836
117044 182577
309637 206470
502840 647101
158974 430992
645765 312091
858174 193458
242449 129415
863161 219702
396877 731668
656089 134836
910455 109906
67524 219022
812309 228817
250303 459987
114583 385427
682705 96388
363029 928595
651885 106282
46762 218591
368890 744341
611552 230491
365785 740901
176002 848371
368532 743011
342808 662263
603017 298953
134936 334713
56309 238099
374143 740718
587951 256467
687210 238581
128375 660935
430046 554451
832413 236342
22679 45963
37506 213634
236201 471085
702912 320386
362063 676010
610313 930337
239834 191734
451593 533854
397869 357344
613097 305451
686173 326019
852032 193426
743455 254046
890585 103579
844966 231838
911112 651044
367403 743514
367680 742238
874676 167626
938065 76971
141985 604962
862373 514510
875324 660011
828929 131164
411447 553845
75697 236378
144615 743646
644302 98342
360953 689360
475105 116733
740528 246238
375896 740262
23113 208294
691626 134976
273169 173801
580879 452254
58588 229962
42375 260554
473819 109710
420336 563946
637623 239931
685186 80558
775009 284374
335604 571298
679195 293250
216501 380400
637654 242400
826863 133002
922540 389046
664370 237907
321107 635451
76868 218381
749570 241552
163335 196170
28276 164650
710969 956059
498758 359384
400224 424504
711784 248898
634951 102551
773924 238719
203678 595404
309902 147396
368822 740298
95259 222360
497523 143043
604194 185019
733482 150043
368226 740760
986801 253306
421306 560613
773547 269409
724000 252409
717499 297856
678196 138233
654763 93544
233117 477144
367231 741107
435680 324154
669062 373143
438761 549651
687436 316274
904756 121126
368441 739006
427807 553605
623255 272566
55174 714703
82204 171394
623621 311723
475468 419143
356005 855774
664669 101255
251059 430741
860729 209434
918944 147537
153370 912349
671374 251251
911453 650535
677471 286879
923618 677575
213959 588493
74053 223632
401010 745465
912642 649094
659863 279887
628693 278269
135327 864119
695223 222224
371465 741745
688415 294780
873809 192709
325781 700536
230260 597358
231883 482795
641080 327248
688264 134306
862873 203851
365419 738039
202500 619293
433031 554828
912572 647918
501086 405539
696690 240020
918261 535673
391735 425563
279057 423968
402936 429378
913377 650693
405048 428057
627258 284722
434415 559513
435400 555716
365342 738489
436070 550898
894209 97625
560751 279684
705209 263865
684787 294483
678961 296645
746926 487964
207621 96188
910815 650163
907836 648779
910640 651038
699708 87784
3468 616292
118870 238161
361526 739623
911919 646180
519363 332027
664846 111224
588297 277129
374108 738033
399440 429543
475341 119519
179304 120080
686243 264291
722665 184904
651016 261776
322000 129925
159978 183012
73022 677572
841855 206227
52535 277691
191672 88796
718501 152954
379346 303296
264436 410733
620472 50388
946413 175826
82918 208052
394902 428579
419054 558328
649170 288912
852608 207462
409622 433840
156960 130288
704967 232229
285931 517421
858132 199845
912391 651007
732135 241768
66760 192093
775692 255291
625817 279738
685499 286335
277982 153866
545406 251993
364702 746789
222956 116805
181286 675122
652259 55853
74907 188891
858983 202235
93381 832357
353290 672707
44946 213947
713816 251968
206087 570340
437153 556485
47842 203972
142189 91324
316112 316327
712569 249729
771556 220263
122508 652982
664107 281008
824276 131066
75237 204531
728612 354818
426914 545844
91553 668173
204273 97079
85329 223772
369373 740392
83969 449684
595249 302660
614121 72605
632724 248972
859464 200345
668116 292464
791204 132534
432156 557838
514877 596135
176279 837029
656573 100307
863070 212218
369360 741661
663637 107288
74939 76862
512766 420767
370409 738452
728512 504410
366604 740483
248024 161642
89829 221876
403995 429027
657936 104287
369744 742283
292418 157599
367518 742871
766966 263066
411766 553459
367944 740353
909318 645617
825788 204477
57604 249712
371493 740322
955911 876415
476213 115905
102755 229151
871583 205118
131969 97370
122016 650859
369637 741327
370573 742768
314142 144686
672133 79652
258998 91430
484676 428664
669737 93170
709035 920544
368447 738945
87351 250579
804053 335517
243576 481599
34593 198651
361289 742505
695925 116918
662947 291233
881159 209969
908847 648111
367708 738100
366478 740101
712212 266488
286556 545721
853215 210686
109743 826459
366186 740371
374317 739427
829334 900291
371961 740329
49336 188194
367891 742175
73922 168903
911641 652547
531686 450599
713628 108997
827077 132289
924961 891172
854141 209417
879014 214481
408310 726205
365928 685332
370904 387183
372565 740447
36226 223856
710673 279556
202562 105583
625194 348807
402989 428789
519345 444335
641864 321727
368634 740117
62018 240306
862127 237608
349338 678438
201142 98485
679906 276265
625954 78455
370756 740554
367603 738985
192880 614967
692850 168543
370333 741211
74739 243923
65920 169804
493471 451134
668512 309202
197974 88636
652905 285090
810671 198582
399260 431384
430787 548280
714777 869963
207871 616411
435235 553736
423352 555267
390069 361239
999620 647714
755870 217307
933330 646067
716832 235073
849753 172964
907126 586222
614631 225338
866115 188735
168629 831147
399121 428834
561302 244863
885356 115698
170435 501444
365788 740042
368006 743494
222644 297513
144240 174708
140502 861814
196460 584187
634512 197858
370341 742720
791006 258051
321403 231960
207473 393364
367747 742310
759313 235935
31418 223596
660766 188803
647245 286657
741519 272656
70160 482311
645650 27769
771402 259627
781755 284220
368271 744218
762860 283060
634271 279815
776905 123807
832442 695541
795339 219554
429084 554390
675283 294339
851388 210489
70366 840949
986648 322186
428388 560868
476193 375493
862083 217580
256457 180404
734363 282310
580283 258681
637031 121855
262190 149768
414723 288664
739952 213017
165109 852623
365761 739195
512232 408344
374833 740814
636207 236563
80874 257698
361563 740151
819399 636356
236035 201154
744522 785731
364906 387538
625439 256305
803537 239345
641136 121727
222473 875696
872136 213159
531873 435388
642883 259619
366571 740779
369514 740104
371697 740429
581803 93670
829947 127415
572989 326340
646835 286754
409915 427002
27331 210552
371342 740389
710263 258936
417987 555337
914039 295385
107377 655684
705364 280023
35114 241913
911914 648537
815192 229561
782772 279263
943056 562963
683298 307163
517653 439703
691425 312680
379274 844062
568971 283234
945247 742538
859320 598996
680845 279608
667807 101603
210994 148668
265457 454797
828143 185716
64766 411900
205032 579598
656670 225647
421795 562600
346792 945341
364612 742358
843207 198428
662443 108972
527158 440606
544269 431613
97980 203563
157294 789893
749123 266871
484060 681232
703093 95885
662515 242525
479248 341753
959154 673403
829321 130151
196196 69282
827474 130760
366380 738188
365507 744765
722351 310313
532362 439221
374807 738184
63579 236692
222002 101207
657801 102283
810841 282972
58006 212968
944111 636139
829543 321815
795336 234027
361343 741820
199274 603203
804588 396070
421762 552074
610139 326154
356668 663477
937344 626206
403802 726134
70333 205725
372121 738728
908853 623875
400680 429074
876368 198105
681734 45534
688786 292012
367321 739154
423795 558285
372238 742217
456147 532192
433800 552008
667072 287458
93662 232714
913772 789445
572838 96636
673222 279028
179517 825746
372914 737896
653137 279888
84974 650043
810455 255249
368185 738096
253326 48851
375098 742436
632836 237147
846485 220100
460540 989191
181452 846542
634397 140471
909806 647667
371145 743030
37183 226956
369509 740290
156719 583719
632719 196106
369488 737924
648678 44271
430612 543108
430850 548597
364245 743885
64260 240304
365731 742127
234821 88969
910179 645062
166016 579814
671121 234416
50798 196929
210139 609997
814201 275795
496252 441965
270419 174805
529737 455106
366568 743325
299029 142246
365231 744239
605864 172479
14061 212399
438013 555561
190875 121391
198618 95220
520229 435602
868220 186545
713226 968808
433802 552687
166816 501060
303465 151943
505809 436396
677965 331704
405609 432098
719962 503657
531169 475370
910136 645831
670981 282701
373057 737828
368391 735837
203941 593032
144193 100435
833651 991798
47757 217835
581410 442904
911557 649038
853771 199962
436591 538042
414660 557629
370133 740176
80397 852799
709058 240791
41585 224907
827861 132522
217742 765591
235567 17544
371549 737392
804055 222004
398102 728188
910357 650649
475680 116104
139472 405196
710116 124128
840356 495352
241034 480899
370557 734866
567975 326197
584606 238754
850005 200211
683956 125999
923631 699095
447554 538341
173272 504592
446702 536509
853699 673402
298644 148848
816339 979900
423247 559934
813584 240219
657638 258197
223627 615281
575173 422624
368538 741050
328114 156080
365018 736624
522120 305440
668306 109136
912418 652425
417121 550037
91009 208283
680645 295602
264052 8011
375385 742145
776837 795254
93167 201587
173440 135081
846571 196726
89902 246216
368615 740679
476441 115251
87274 807280
412424 417446
430980 550088
659167 103476
418360 548923
817442 56026
365145 737692
425239 564354
847900 211164
532114 443203
363756 737857
134477 95615
893093 599704
828528 127443
729690 479944
739671 499709
427264 553776
908345 647864
37916 248285
868102 218531
842355 205518
853894 215958
634740 260720
44617 241956
880210 191324
673213 222720
717501 226353
670867 340100
44375 227017
664303 274720
197320 92873
213538 83406
713622 262545
861035 192085
805979 196465
695379 142206
146306 87077
614768 296509
107084 128507
633745 308941
738663 310812
693831 222994
401329 725792
759505 577240
54663 224205
635446 240017
736723 247180
424351 549490
185790 23523
648999 284023
300878 153682
730424 284197
394436 422935
436674 526258
125949 682153
361472 681375
423768 559376
277219 345144
56686 265991
417888 557016
222645 91561
821602 206823
304069 154474
587674 233663
660572 134609
422322 548853
671576 160641
680237 330860
375222 740961
620696 876100
171384 500789
820308 217034
421275 558498
737757 230466
444677 534387
295081 167576
848072 215467
627860 134046
63980 192274
357857 686234
74674 218126
594927 271584
902946 107123
362542 738323
553579 433849
658380 71243
756383 327065
783170 218777
433610 547460
367437 741810
368216 742613
856317 252853
947321 100843
474865 116648
364681 743112
654964 249761
740098 257992
705255 353226
651180 286249
367414 744781
61020 864576
717844 238683
172581 186525
305472 770077
719843 234874
669919 110316
573729 130543
350062 331469
22978 222552
529240 460400
676044 262544
787151 193461
292108 343450
364652 687760
686047 78089
966799 492877
94613 262029
37994 227178
94244 270730
696125 290146
216065 583632
552050 301169
912496 671828
503210 454153
840469 219371
143572 112392
633516 199809
954073 703765
677138 256545
867295 201985
632409 239244
713305 65944
377839 608894
770737 213045
403786 430985
352567 130468
776482 254420
440252 541709
794823 268465
414882 552400
45832 173521
662487 317033
37156 223899
764564 344061
357676 595472
647284 921
208334 98088
364560 746514
787825 226074
191945 101399
621845 254543
914361 631629
74290 214273
645125 277608
421587 546560
909168 650189
232924 179421
76855 660595
438175 548282
423456 550975
413306 551617
218239 198998
17507 854869
635178 239424
145757 852407
730757 245093
195573 449685
242713 540699
362874 743118
105889 228349
363258 737322
923122 102358
950346 631932
191514 604083
897278 924466
253030 472288
77543 208819
667181 105265
800753 218365
688116 273109
860075 856971
826072 231728
525941 541236
955807 788024
584734 257638
290761 165650
284148 487879
836947 207500
71156 845903
802284 264008
194893 75267
657717 75897
37896 256906
685394 132337
667948 257833
703494 230316
67292 692912
897791 558558
911223 647101
842521 209536
205402 589817
630317 104520
476726 122744
955565 406662
473946 114336
168622 983972
806312 237177
650197 281174
434594 549879
651058 298543
25397 244131
124060 681620
668744 106661
322018 160846
858954 218749
626564 248352
302785 120239
588429 984134
824842 134030
319255 155460
38102 769680
424521 558977
761089 247656
171423 501849
139501 382769
197972 603209
368145 736464
366437 739146
521578 334644
55344 193341
597289 132341
66755 946466
666834 99406
267169 497683
239288 346407
831158 133619
368253 741087
95615 850570
586458 77557
663481 127949
46749 231987
367125 743345
441824 549965
368707 740008
364957 744472
889719 258577
475836 118441
590778 295187
632719 101231
741750 570745
431862 551216
358087 670505
874584 192222
832025 363993
368535 738675
788119 237955
235749 92207
362825 738269
699354 337336
170056 187844
636069 239509
168983 503385
747522 723074
605499 301520
366140 740707
168547 202806
450175 532390
371575 737753
30887 266415
365026 743342
765534 209812
427196 551238
684714 141256
52684 250110
665817 99553
365171 739816
365139 737839
300442 171713
368894 743645
665200 105212
654817 265600
75938 664949
699141 230202
739595 284296
913266 651186
659272 104704
392044 442867
929027 73476
420303 547728
809366 244940
78298 232485
303412 130575
707490 361919
873174 197442
826820 260885
619742 139434
359205 739789
365503 742285
867311 176881
284987 94407
186593 855250
371200 741981
446708 532951
423495 547756
734638 283156
104812 837287
525299 456408
154790 126360
371369 742484
197201 92213
368146 741936
503940 459548
637185 239156
898954 243438
370456 738818
471898 109649
391635 738062
660363 287890
215841 51505
392321 424480
511667 426062
365447 737879
688094 198596
285068 608903
714801 4515
922471 744879
776808 266886
368812 739468
371624 743284
369138 743554
819618 240085
964964 878069
36698 221728
344994 958872
197661 93094
440852 537688
220897 804530
907449 647664
203601 99163
857818 250926
731754 325112
236897 463437
49452 780176
915898 54011
201654 591536
401635 664844
129476 636479
60072 228305
840022 200972
38867 160164
923462 126305
423357 552558
365619 743088
371540 738777
855023 195563
397773 433661
42865 228965
568231 355183
74004 854408
765302 250371
642596 312804
365875 741380
831367 133053
410954 550515
678710 297522
356774 682485
138658 93695
625759 72526
91039 247054
428473 555222
416450 717228
124235 124598
69526 191855
680544 108611
638329 240792
732310 497497
751571 389
738225 321556
867634 179812
775104 246324
427086 557607
837199 200008
407315 749836
176555 557891
725813 188442
674762 350979
264739 450830
369834 736750
367087 741443
770096 268327
193704 697402
636326 343861
367623 743714
190770 590682
454315 533374
699280 285756
783590 304116
180768 574071
677376 248616
57082 212678
169842 501684
826753 237821
648257 285581
203402 602646
423507 556813
368715 735673
910713 649728
851272 190614
912136 649563
853753 197976
828734 131020
850114 184277
897625 563684
615700 254922
687922 239002
81175 225188
464205 847236
189677 578260
359909 741060
141283 884887
74721 215090
84133 220057
107985 425626
682429 289821
98530 607494
197601 92472
476873 116595
371043 739370
370523 739372
73494 666966
370117 742092
316152 166818
367791 740923
606382 318351
672104 298025
638167 131419
715165 195829
368200 741686
828291 199276
878542 196833
358197 432756
100399 810997
410447 731806
29647 215762
555992 295208
700591 285730
270970 356538
580623 18228
670485 102383
201396 91776
364705 744705
356353 690325
434390 561472
420345 558239
735090 405103
139933 797753
735148 497809
369670 743925
914785 652921
101156 414220
916931 579578
673565 285904
424761 472730
370461 741628
404112 429161
735748 67833
695315 91153
657985 448552
185443 831880
617492 345428
659709 108820
414726 207094
79803 244137
403510 710556
94561 205903
667096 287470
643355 299000
220917 608513
775297 282655
195950 603134
673759 303982
132372 222992
653805 259279
493851 445961
490232 434762
698504 111440
731755 487096
722099 262391
199693 117655
36272 206571
633793 236243
182288 882921
557819 442426
752237 156989
829408 657277
729592 291343
390738 746183
400434 432092
533344 423276
365437 740873
893201 104958
355125 692721
665410 107960
81488 230904
635191 324911
911873 647776
694426 133441
436243 539461
855556 197235
113340 212108
220017 127877
788075 235263
364893 737599
366725 744066
659939 331503
147216 820862
658698 106535
368489 741010
870440 195462
860817 192591
688119 224355
443565 531633
648239 292591
53608 191246
321016 612808
322410 112928
670414 25689
106397 705217
859759 284940
362887 737054
630350 347780
739916 232257
148505 653181
372269 739944
58047 232983
845864 115210
635741 238815
49212 223602
662285 227577
707349 137953
698779 282868
13499 183862
913493 650365
667940 104032
89542 200237
86386 220787
680784 163274
310988 665685
371543 744509
292016 430474
415471 555794
654752 281618
623773 411091
363964 742196
370448 739936
907039 649090
366882 741425
363047 739534
851409 187833
639632 644797
85962 206401
398470 436680
673600 113723
397652 426498
475922 119082
656240 268736
626833 305412
704520 297134
700736 222797
182636 371022
814098 85742
833864 249362
674727 101577
898818 280085
410120 562494
695273 320068
432242 386427
361067 682434
634846 242855
978804 657635
374814 739223
417229 556579
51981 217254
620876 262220
332063 722663
364920 743219
660420 285041
557112 391841
367895 739622
156588 657687
622176 38675
499810 467553
365525 744245
366199 742724
868717 288711
373015 747579
886233 200885
368369 743294
332400 329791
253709 180853
430250 550862
441306 535835
696339 251555
876960 194432
643830 264973
338153 463699
196159 590737
808253 852362
839323 209930
922142 108161
185407 50888
559382 51190
670786 104010
210999 150830
683082 99211
533137 424499
367137 741096
512365 437951
33558 222193
584236 256142
662298 214789
728450 305555
410550 433390
682524 299580
44105 226824
906749 647459
419542 548037
910654 648152
929043 905308
876146 661622
927095 886647
692483 91036
684209 946562
563602 485569
403452 719742
84913 203448
194513 71952
693252 330212
815368 233209
361932 743622
20360 207028
417816 562703
731972 284810
44940 229329
425531 557900
682042 294417
363111 738785
444451 490064
818385 265924
719811 160004
252218 142564
620652 230528
811163 240373
561011 328747
306933 138284
651540 331764
812159 226658
640861 799929
652466 118101
567822 320011
701262 99931
368483 736350
415745 462398
164218 124517
78752 247856
362125 741981
492609 255790
530517 563540
857553 183338
217139 70687
305094 140166
442297 534118
647273 58518
372464 737596
920635 576965
718686 265435
45248 204214
840843 212104
445555 535229
777309 179307
855418 145547
364355 741042
819342 228119
79079 884250
208635 628312
697173 249342
425622 556410
388922 733215
732279 936953
964986 146026
376059 740866
163961 868535
911304 651587
219525 568548
863471 153951
708589 284844
626639 65801
364787 743892
373224 737133
787409 230527
669594 105125
983614 725578
746539 264544
639755 314378
427393 551951
71994 138583
838994 583110
880205 196689
993688 988646
170791 767954
85042 276816
607403 42712
592926 884179
667203 98844
642133 266238
169094 503193
693614 142903
661233 290725
952739 79472
624955 268427
37673 210583
607916 219828
613143 211719
661329 184002
679314 127278
169057 860032
832316 258756
615797 315852
615058 255995
634090 236646
12185 245408
910171 648345
301389 369721
59749 753596
730019 497247
315114 180861
51613 250964
125350 410215
719410 203183
420145 549170
680522 321585
742867 213891
693076 311106
290684 136941
424795 551016
841882 223755
724599 501521
371977 737185
245531 682398
675329 127090
50500 219073
908357 634013
404968 435986
599100 135850
278777 142247
337041 133632
373623 131145
200885 604228
846484 227974
235290 469139
76374 221510
370529 735120
613851 228101
655175 39997
625157 312223
615521 299878
683963 265833
362440 736463
634039 235847
420091 552616
76298 225388
44348 190916
427819 550378
414386 555873
668813 108227
681384 260364
911541 654599
859905 677385
842664 208946
220113 596593
353954 694970
408205 690003
694669 64757
397812 430199
501304 440235
58153 220784
167077 500514
910586 650177
366915 740958
964890 879909
687705 267393
373100 739319
367663 739023
420571 552301
873577 622472
368575 739474
909893 650107
279402 157934
859498 194167
404507 436655
722183 205786
29014 204754
673105 291392
364853 739461
706106 933096
18203 843859
371595 738686
699671 54420
646439 288907
664129 231721
190654 845618
70272 216165
429222 557194
150457 74172
669632 297977
665006 292777
367650 741744
869098 198362
74095 242454
876653 207194
663198 102931
443702 536398
371159 742321
681598 36250
434532 545205
44731 223320
430159 547079
793220 246243
636071 246757
616573 70127
124798 232956
113767 266596
39565 215021
950354 223219
85599 189027
30250 205961
424455 554666
195655 608720
666444 35619
424925 559954
421422 556380
615061 512579
7603 224963
416186 558308
607634 276455
97257 817793
423432 543081
173040 877183
290928 480878
79217 228532
72101 7845
692228 329247
224042 59792
664041 295843
629303 254709
501827 192479
141074 656079
55810 210496
307654 123698
367948 740715
675745 289874
104195 884073
682628 295521
692551 218911
675551 233396
148273 768723
819404 246534
225007 60943
692249 289232
869643 198898
96453 643109
399311 437134
179108 162814
125654 101193
370405 741135
137452 603347
904436 596035
735664 291312
672489 276149
367594 737958
966816 706682
679925 108507
593947 326160
822418 242491
303933 127279
219598 599818
955726 106373
123537 225075
869022 196070
850354 596750
745554 502950
366457 742108
966601 70648
406569 432229
913280 652802
368058 736629
106657 813764
896356 893687
910710 648373
98975 142575
552338 243672
826798 131200
167781 501312
634635 255783
430399 558438
225057 881816
430999 553437
252503 587096
363473 741629
332002 312330
364533 739614
368111 742037
447157 854706
140633 400256
111741 278508
731174 115358
715265 297216
424732 557463
730765 243605
315893 147991
436248 554352
395632 731975
175314 113906
663725 254384
619471 78728
609914 91881
233229 419457
253724 438531
839282 213249
911615 649568
216740 69669
686829 252137
403892 429672
512988 443328
686308 107376
396629 433043
83434 604217
910764 649243
368700 738976
369423 743976
645669 109929
70480 236363
695206 282157
571392 259818
370895 743837
185954 623681
705956 496913
884699 89675
206813 613404
193469 88355
911909 647088
367743 738127
770999 254540
424273 544073
744987 499129
114952 405217
371614 741311
670666 100881
662821 106762
190414 483271
408249 427549
821932 217403
364063 738675
400332 434606
843798 273584
199352 336941
357228 676653
436430 539372
830082 228437
657887 83865
916489 648676
728115 502160
329292 512358
810723 251653
660939 130100
617569 294793
671538 334267
284451 144292
833679 191225
162216 669500
199501 87531
419822 542799
625757 334775
582808 975373
341932 416534
863387 928849
430157 560858
91206 840324
236205 183953
216346 177486
652412 348412
369139 742154
667780 99812
844267 214382
668908 271234
172323 272694
152510 69992
738615 295711
163386 159076
865518 222417
471999 59508
674108 101730
781937 547696
365882 741092
723712 202521
20376 227282
616205 112502
581481 775533
965297 665924
685782 79739
663581 292742
422430 554225
221826 8628
370917 744607
661242 105942
425763 560948
397748 738252
909663 650753
655922 90061
106728 192003
367898 739633
151659 553941
854700 209444
819661 263587
418530 545191
441158 540946
363685 739596
104329 812923
736717 330305
839011 366529
787650 221900
48839 195506
370643 743028
727792 206478
707431 41107
371473 740540
474359 117380
667706 302655
258300 481383
586451 310399
638971 254198
523259 479960
430822 552461
831408 129188
638721 280876
375741 740066
878395 557012
709303 275161
325285 141337
250274 522979
176961 224985
877964 898713
367069 741743
369872 743095
148764 241390
175417 400356
862708 194644
194710 818165
870315 194080
662665 103465
798303 269304
350586 679290
368445 742687
300657 156910
71060 662713
705213 98013
828857 141102
796398 233970
170525 500751
837713 248402
838395 254240
399059 432496
366464 738510
98935 8630
939039 22059
913342 654067
870684 201535
367224 737045
27811 211590
102414 672939
595382 238512
75906 663750
186755 850481
711179 98454
676579 198971
402423 429950
27963 801633
913881 649805
815471 244119
427928 556068
369200 740885
600487 122662
317347 125587
837105 196906
509471 444954
475932 119252
368985 738945
832450 231161
163957 322751
666529 298905
970053 710988
626063 62587
27131 485341
194765 606211
230021 591604
252510 565570
475771 118064
167454 502072
299489 119916
875082 623792
815890 216230
645425 272947
90060 327714
365645 741383
641567 68709
427880 561169
421305 241616
621383 295436
271958 183919
306111 383760
867643 194046
723347 321648
836245 187032
229191 115725
358233 743472
970024 712367
539392 260262
117816 425035
370020 743885
434308 550385
371724 741128
423164 561241
663577 112911
372926 744513
171707 406841
520888 713310
727638 116222
852674 188030
661694 109063
217862 608361
396283 706064
676925 296397
464073 536776
127773 830438
408224 550125
920023 621005
371054 743848
196949 96649
378624 236843
368727 740786
700033 200687
614337 113323
258140 488259
372663 740399
665874 117377
408597 427804
70096 167109
368371 385732
207402 602175
531680 238740
282065 644985
659641 103503
559618 239101
844735 201020
821083 519083
790067 255987
398099 432120
199799 604313
932156 214180
920625 111285
399214 504927
641776 302263
376039 739895
175685 101190
842005 203542
263913 423134
298740 151446
441262 538612
56942 223582
442970 534404
898604 132000
671831 122077
637261 239528
698327 288084
728504 307712
268127 188814
570139 310937
355338 678841
660428 285544
669953 103949
350080 653832
358039 738174
665099 107916
373374 741970
678412 83970
370004 735693
71734 198964
669651 95083
761099 256177
679896 958075
126911 595985
215271 183214
931384 679772
274096 443445
212897 593987
860776 186889
664780 214379
977993 681730
598972 293752
368759 737048
221596 143627
847989 188641
69594 208192
375439 743904
820586 232433
26397 764987
63260 854328
414193 713600
120837 196916
525759 453574
650867 110963
294415 182105
169250 502614
743365 242463
977295 18572
369379 740241
831440 204049
644678 125519
867197 204311
353184 768022
612740 320139
363541 741498
423655 549423
647303 242475
440714 534656
701929 764643
912800 649186
665609 101723
899452 746422
386351 637580
643046 218410
849394 128668
369287 740977
670327 294943
396566 748810
372530 743123
231865 322752
300605 140367
744376 242047
687486 252710
369531 741477
405254 430807
737386 116757
645461 296200
65250 200700
969260 817411
654221 104195
657019 324277
188532 438500
127537 162912
657030 104715
702541 312695
419422 558832
207168 164952
369226 741796
783517 304005
820291 251261
494690 453217
908884 645070
197055 93009
844444 235309
741284 285500
310508 117870
412327 556114
747054 482987
644902 84868
361305 737468
664410 37624
369283 741487
795356 143901
96730 832008
642276 63127
703083 275056
89952 404413
445583 532464
184818 101076
372217 745037
71692 236075
375510 744065
368866 739572
362430 464256
80035 236065
245909 130848
371846 741426
198246 590731
400399 438412
936798 631196
371576 745227
368354 743497
805857 217454
308864 132413
365974 739824
851970 214666
394098 424195
66706 196549
627590 137946
670501 301347
888151 185963
375651 741183
661256 319336
164805 257506
81447 221358
372198 738709
370451 741319
719648 382813
351969 685748
656376 135583
225580 465098
423172 550326
442901 533336
430252 550211
327198 293642
98220 156272
370340 740409
372213 517332
390390 747954
654127 104682
774917 242462
264710 479796
364865 740169
826891 129081
669124 275512
401539 436825
362848 743096
363251 648446
921992 634308
852607 256513
892878 200420
804950 246012
368662 742402
374298 740638
830467 127083
329945 182335
663160 102303
667315 109600
643101 273159
659381 109178
438585 534244
365128 741445
676296 437309
357055 692547
186239 163342
366119 746355
152921 131136
557194 396750
418847 551937
398401 423908
791816 215912
423597 557478
287671 141358
887633 539125
401311 428743
308458 136999
203777 93083
547776 270692
129453 836117
854645 209320
366649 741150
883019 609241
576674 770307
734170 739127
98334 385187
675570 242736
424721 545961
540937 412140
828494 281345
475555 116752
689992 67592
871057 192871
189504 600849
420768 553817
971636 602913
856075 200268
838324 679362
327919 836268
636088 242373
513657 446995
66157 167942
408913 549144
916684 655710
694313 308993
874351 205327
453979 527733
504787 265816
638414 314254
635921 236447
370717 743337
499446 433661
169713 503108
874085 205285
799738 264485
363898 741762
652426 89683
622931 276432
169459 501798
859719 175239
47449 227343
847965 332921
620885 124729
411766 424090
637197 241736
300231 169410
90822 229963
667786 289078
194839 91036
688037 243752
852472 204701
204857 92596
427008 552761
870067 705586
367072 739597
648394 62094
744039 276985
923132 853723
609721 296917
890172 829985
711630 145419
619584 69715
674550 322927
429476 552893
86556 248474
18458 258292
275328 161513
199327 92958
931282 857405
808639 575086
821512 134057
132820 414693
834708 254809
356640 168818
626585 74906
706995 780389
371376 739432
678766 233534
542659 692614
365472 740645
913353 653799
376388 184880
198299 112346
718149 510085
635373 240718
476907 117310
302175 198587
757646 234897
928000 539220
755922 195477
369863 742420
67511 834676
789853 222381
146303 421282
691926 251591
412760 732177
212348 145578
366823 743619
846569 113443
675830 299934
202694 99992
888551 734763
803383 252672
428128 553272
905452 115245
602078 374292
404403 703389
633011 93762
426323 546024
164909 437571
366363 738775
909452 589874
373324 739918
320195 300913
907527 719941
219094 623930
693634 147158
693239 270722
336362 851091
363864 739898
367965 738922
215485 394476
690014 241076
179277 143138
453916 537940
426398 553300
617174 272257
872137 263639
80187 539556
660984 38234
499562 472530
439174 533166
301546 167235
277323 91092
406206 746399
363786 740064
366124 735978
150575 11553
855141 198959
402596 727147
844747 204271
910986 629402
423307 529258
372984 744263
299388 120900
674094 398768
920863 898309
354841 683246
759793 256943
762602 256415
643235 103872
402428 427774
515661 152149
673784 267672
692348 682171
653458 86897
212476 609168
742525 242176
401827 432134
75993 208478
657333 131807
442919 532317
54499 241321
410201 549459
722964 259832
319889 126960
370422 738079
364054 682669
853907 222052
701573 149116
597568 970283
209293 592923
295580 150424
886771 256365
183121 596154
197885 91187
128025 404717
701473 277746
656174 120181
208539 97995
816550 243772
664087 42426
409449 555424
367038 741219
455555 537474
726081 266916
275191 144205
111833 908710
611367 904059
605730 259421
419475 552916
687113 295864
228773 141260
84721 202743
705078 218270
432510 556408
915980 254108
811015 230052
213783 901882
365856 737917
665190 290058
636134 239043
363251 741285
857966 185721
951156 863798
325081 129109
851822 183826
505280 437912
654911 247797
354535 696277
443130 534169
962666 66239
370715 741831
597444 317946
772608 191735
846169 880480
748764 96755
189724 578757
146833 437390
114143 481837
368369 741121
370578 737666
387384 749478
751865 232905
771159 281231
601633 267057
618262 348705
98640 889018
201219 35714
431554 550542
699896 320979
560786 127151
676709 293700
307835 300876
841735 203587
53706 214092
369501 739870
864125 186856
330392 131663
639269 242290
369536 733748
38547 213119
687834 217383
622436 255454
681500 361026
70359 920748
92098 187210
935622 103291
367096 743165
96534 206552
646388 379932
12599 187785
276570 871836
911299 648770
854475 51324
643091 244202
735269 252863
637992 238009
678490 106812
136152 107009
443851 527290
373166 740263
282377 130590
584362 373685
636046 225284
837542 206714
213044 440995
554717 504525
702261 265092
725642 254837
180269 170654
684437 79472
910015 648910
698777 92212
752324 260313
728269 137353
369803 740951
598574 133826
9546 668133
663592 286354
769057 207869
691061 220611
400258 726061
366262 739966
819125 293656
828796 240186
102216 206581
20370 256634
412724 463980
909547 647728
368275 740052
662752 286311
289400 494975
863961 215989
175198 579111
82316 201139
312855 460547
124965 806907
676568 291844
226770 692041
848478 196011
897973 184339
673787 15597
374772 741122
679577 284563
710597 132490
606005 351660
639483 243521
446900 535412
201546 89646
606846 112199
860598 205623
369287 737874
148341 860926
890166 597917
423448 555501
201847 94101
141206 33789
245240 475657
922938 671472
219307 573575
366466 743646
410088 322203
940537 74626
928284 840427
946740 659252
753842 275050
594303 214655
856298 196430
375859 740327
725815 310268
373274 744444
66521 229171
367106 745908
764394 327861
428169 558194
81467 182345
837931 254379
376614 293634
369357 741651
745880 341994
947868 867471
124864 218320
808509 208903
50694 233807
364778 740948
651408 56320
564964 81336
855766 259989
366867 744613
853969 189874
678692 73358
426346 555498
60062 668971
104484 261874
740570 242879
304124 101835
35770 954355
424231 547828
47020 212388
417635 745297
647810 100383
911663 649291
917933 130044
859560 209648
189533 667457
761416 237319
168830 503327
633676 335597
665834 106469
202783 599057
366058 740084
421109 549765
812940 235609
660973 312235
43813 554752
696146 308673
368397 740624
362955 739308
945051 94623
654901 100419
630692 266935
582044 302166
911501 651245
201587 600936
366954 741994
561115 451909
45862 199280
204194 603150
790167 284632
92580 259502
31656 189409
646750 319521
666924 159816
621502 251378
101611 667269
402247 425673
369445 742217
366198 677666
369714 739584
27156 185523
94544 105514
956291 80825
402599 429551
36217 238830
777232 195801
829203 182307
684868 252286
479246 136277
577787 481044
797169 281884
128902 622921
715146 119800
136740 178470
60347 203484
371168 734902
237791 23180
552401 488209
482154 299909
657627 284207
241598 211484
138764 137296
864213 190019
623128 59608
78829 192130
178241 598921
736327 443245
731597 307165
756359 289166
44973 233520
498228 387657
628392 19042
430191 550568
419906 547886
140863 20134
439997 534058
367366 741996
366540 742102
387019 162548
726240 216363
602410 369335
584572 792801
721415 231148
371363 743471
368770 741030
636857 237395
395822 423088
637044 240920
614283 295003
470809 242963
425262 551507
547634 427996
200625 598274
367083 740175
616054 253179
391516 434925
352763 680789
83105 151280
726594 37617
868082 906985
444207 534166
857692 184060
99167 187619
162800 103219
736401 503789
361892 739884
886488 207000
372082 743399
370161 739649
78990 578556
39611 185306
671274 266882
413064 703242
869524 189004
377778 731114
115842 866704
422940 558766
767398 271588
745005 248246
674978 300885
172180 857391
401239 436991
194469 90793
627415 97604
141448 701661
421516 552297
365681 742467
194154 80976
982894 792663
167243 50931
60605 205574
685059 298423
766078 322902
201946 154377
722698 503961
36233 204474
371556 740558
134118 628433
676637 480236
80847 233249
73472 251878
853754 214690
97314 433705
327542 171374
475554 118185
421389 548287
644506 280349
858008 204276
667699 69878
367941 743966
634016 238157
129553 829223
830332 132630
910595 646948
82673 214311
365591 738370
370283 741678
150108 666925
169328 501966
662745 292425
768100 241957
802776 246215
640447 271715
371296 740471
669149 95779
375096 740765
620169 70128
369092 737497
13659 224527
899770 253265
917290 654549
18460 195501
387668 966019
74866 202466
530037 460772
873443 134755
363863 737476
640075 208608
849215 214820
686145 138231
658526 104383
802163 258158
786443 210706
940908 698515
301804 185256
638722 244302
303090 252389
845162 200251
19226 603741
55404 674520
755431 292938
175845 829743
358073 682003
399628 426484
549818 429995
684737 242176
359830 740247
658832 294354
677715 259691
646236 82851
435692 554620
861025 220680
593124 22303
666131 282385
363704 738446
52900 204791
129118 204107
254219 128775
194068 91959
556900 449480
169456 503187
550868 470625
408755 432505
635773 223351
359612 672966
196824 156414
659014 100393
141458 621442
675012 131492
840584 220574
676124 101490
815622 250179
209337 133683
669608 309379
536865 439471
696536 26779
520086 453265
190013 585236
228779 647280
364035 741642
692235 304870
912608 648924
68073 225063
670431 106904
726474 499234
877790 689018
169635 503542
437209 550601
849871 694250
669610 486708
374632 741037
600874 214515
660240 180922
432019 552663
365411 738536
763497 216533
398534 426426
926614 721004
352345 669950
390023 747199
651691 285663
850013 201340
663447 108345
698572 230681
862078 205204
949893 101932
908454 644225
722680 240540
369566 740548
712608 234541
656120 271978
325620 156616
464493 532092
619393 91831
948778 870813
429567 553772
699540 324370
805490 241125
238099 123166
365080 736796
433732 535468
149374 720517
183992 616038
678920 341073
425530 558146
825145 128216
132010 806990
171748 126468
314582 112835
497581 444381
707790 127218
427020 554137
126938 864783
212354 625005
364374 744834
823511 233843
423332 553769
760749 281662
368671 739729
529534 450501
716917 141618
369488 739158
625101 340334
371745 744255
206643 97012
221779 880908
368222 739976
365428 742372
673457 281823
361435 744591
370607 740013
203073 101500
821192 197903
19584 731693
201126 602572
373428 745255
760415 255814
365948 740269
188312 602698
871871 224905
184954 362934
231501 128273
819543 237233
131096 117910
194626 613044
54752 833137
259676 493421
405333 419647
38557 216088
867800 169254
286415 145181
169815 503874
805242 242042
951125 69612
699682 125578
612001 248096
837896 261972
33276 230615
27825 201309
368671 742833
728186 317182
780522 229425
873995 710292
433463 549404
821980 132349
732676 514006
909962 643505
436551 558402
419220 549315
118373 614112
368081 739768
96703 787431
369402 740892
912091 646959
722666 246655
93012 210339
365886 742810
159976 631600
253657 438923
369141 742394
602752 305168
638187 280938
681744 308658
402654 435875
716399 295543
207271 603696
448328 533617
429443 552692
362210 734736
397348 425550
605003 308986
370595 745365
648144 109980
370072 742560
398706 760793
56951 206111
607606 28725
986413 656889
299420 139720
54095 216758
233774 89685
443952 552844
218545 150627
41044 246757
229783 477943
664471 543763
612910 300222
201450 96833
775740 234395
434346 548961
667468 295901
667252 290554
68253 675947
68385 207686
439562 534285
659725 290221
654754 304494
255228 463755
675110 670326
222523 434311
661617 263167
102629 191759
599621 336428
186215 238942
602876 928561
690762 298910
86755 11517
828337 129442
86783 197759
400330 424925
635300 239799
42960 221698
723703 494465
260472 29586
437043 547327
59190 230296
701906 258291
430448 546329
43136 205161
652538 129708
728263 335355
423394 548310
608865 308595
639221 242284
716573 188313
759633 287690
204396 99025
817611 246865
910940 648806
367643 745577
696434 270736
397027 428837
476887 120580
64861 225014
69988 231160
285982 168760
839469 183957
134096 326182
763822 986828
738985 238520
225599 606142
860631 203292
84806 218626
67797 222867
58432 441644
70498 231359
910301 651405
367457 735776
308901 385516
636723 319275
404758 431298
635487 237057
244712 158612
931207 95337
766909 239076
660453 309316
910956 646655
749189 261080
748240 316405
76903 80044
333774 435749
648806 274616
849636 835891
840589 213711
57104 853608
373043 741072
526318 467699
364510 743846
722611 341268
640583 379604
279446 440079
82075 266435
369453 742486
663981 286477
660299 302935
874724 212317
447007 533375
47756 231525
911283 647190
638980 241947
435773 779641
77588 248813
596552 339776
431067 561725
668696 289356
671232 113354
656244 286774
363269 738297
332815 487423
211198 890340
47507 178591
555922 419673
433205 555585
729850 147485
476376 118464
171959 173814
770631 215866
667135 106874
215833 594355
733634 509802
204037 94084
672513 340113
684683 127693
151583 641092
704152 759268
678909 79498
368803 738319
930809 733678
25333 806369
54363 212004
368303 741149
634448 318177
907809 902274
366982 741559
42784 451722
954318 661802
660253 299446
840214 184558
568814 294568
840533 223991
825259 134066
76976 232171
477069 978732
47779 169053
372527 738835
740678 91649
58960 281249
48074 211565
369227 739552
643857 374716
436361 545894
703775 146077
371659 741702
422243 548523
701631 150981
211912 165890
368537 741938
861373 171427
437798 548118
676238 249323
290424 460526
696945 298486
426077 559624
872376 226029
754598 285297
139030 628460
717591 869476
965633 678514
540884 419731
147190 431732
335287 131870
706047 279694
488734 836392
731792 504977
398723 186745
169290 503446
740744 250165
325696 387761
173552 15615
79947 236751
660140 320011
369496 741527
855816 233306
677259 291469
371653 741036
659031 102380
853305 183362
373037 743178
919089 201489
632644 233104
269123 174739
648664 481215
681473 103074
500996 614600
428123 544648
556037 305415
367029 737910
434233 535086
206632 201510
552861 725581
76254 227046
497141 448280
113450 853818
427965 544133
638132 240212
264669 420897
472793 457809
190928 595781
431692 555184
368327 743177
129933 180533
398658 433772
370604 503744
52111 213124
618431 83379
718792 122177
432311 555909
605942 812687
228025 588980
226509 417044
316869 142820
634631 240891
369508 746248
370689 743576
681459 268424
855889 195102
317549 103185
703873 275047
402779 428787
86450 234707
408553 562445
301169 172573
373183 739659
424742 556550
196743 86251
371982 738589
173390 226971
501954 478351
290431 157723
624881 135621
367596 739241
911899 649964
862886 203250
703725 266867
652661 124683
50314 236916
145797 670485
736135 861921
371737 740611
368809 742901
912278 654984
405233 430436
210513 866913
123840 683451
655750 344630
908219 649975
581476 308330
444309 547863
916563 536521
81551 186030
792975 36567
400377 432325
758940 237236
368530 737013
436834 533020
630260 232948
829524 128918
103921 849032
903436 512488
622903 59621
677845 239098
705162 324919
635304 238276
424887 548994
875671 912150
418292 555479
825095 247921
247179 458881
692415 275243
374656 742223
69342 227144
737805 290869
172323 11734
304707 543336
169038 503568
204424 93574
53010 204527
405855 426839
54571 210215
787916 261436
45410 180138
363787 740472
619082 323719
94701 218579
401717 426226
988386 87279
710652 800007
629658 116497
34238 207178
349826 396866
844959 256317
778988 285955
430462 548610
941553 714401
927934 883399
203673 100092
453935 534949
396618 701274
665288 293064
421142 552964
227787 74043
637288 242325
911892 650757
863486 210048
419426 561203
921755 122675
643879 233715
367482 740398
20191 829981
69192 221020
179424 848366
364040 735443
445717 500242
724361 248713
939708 65514
912934 652304
371375 735893
43544 184411
198350 66857
82851 240121
817358 202357
641758 340596
634003 239859
727781 480704
367211 740847
882791 637443
665984 292894
74012 218094
371854 741091
371367 741307
360553 738384
369538 744346
809331 241697
551924 255592
647287 280352
642110 84619
716130 276516
170338 129621
852646 213230
662384 284110
854187 591312
668485 107808
350285 681558
579411 255405
389991 95867
114888 151203
647278 271280
321419 170396
813882 249106
52508 856545
858093 136123
675762 298817
72130 238114
642237 322035
851354 207656
677089 289891
130162 82356
444935 531471
34237 840932
156082 168060
270663 496010
915087 232722
371108 736237
625975 582798
739576 295247
72486 207960
705822 260449
821686 641699
596463 133219
371406 740765
367917 742751
370344 739813
366151 735937
976349 947151
656191 154201
648273 296695
360694 740781
369318 742134
731517 320991
76942 659931
656223 285103
913493 651078
243628 188340
97600 663472
656674 107970
371574 738756
670869 219776
671516 55242
840304 222664
369126 738778
367599 740226
677735 26347
737649 264878
366598 742405
688165 338405
205316 617889
834467 201901
885252 626582
618739 279640
376755 739558
21191 205076
16422 809068
357409 684256
183157 608135
654565 296069
725999 264793
706258 99282
811235 261211
679414 104695
665345 307611
699505 231948
431264 558863
738833 102512
814028 243218
659869 265635
278647 83188
429598 561663
421788 555249
230745 495237
909261 649660
399872 717486
731202 260406
814767 165323
363611 400541
367879 740029
829781 210795
368426 736210
801367 243237
694746 322761
101540 597707
283220 122610
656022 78868
666634 252257
865815 201478
549247 441650
652379 283563
824934 135225
770401 479550
515285 452578
6691 803907
436607 544701
664617 104244
27035 396476
169794 503075
634453 287113
401759 422045
281902 148357
675246 53280
628686 296102
660209 288622
369789 738932
371821 741637
913920 941096
403524 739125
368218 744804
295386 183043
375612 740519
66335 181117
568227 429390
728426 259389
877311 191908
963703 236149
319324 116048
372178 738535
492843 593790
400064 742885
371748 737867
396097 423457
602462 276433
606347 221320
116637 449423
678267 291542
909522 804333
415440 563196
369020 740404
123511 685856
652712 344017
411542 554558
990915 25850
723404 277478
831340 126595
66890 204363
666755 107200
739237 282409
366070 741642
432886 555045
843449 198093
368655 740821
78416 182968
373588 743363
911128 651100
66223 251136
625876 201342
69009 693231
908141 643967
165188 877912
201203 475748
475083 117547
54045 223520
195744 95525
374625 738318
432471 561476
271963 166821
650204 278515
852689 198427
369320 737969
195941 140694
77562 212549
370157 739258
785416 321507
314133 436872
905100 563389
432409 542913
402520 429239
691285 70515
50893 208272
946558 909323
444636 531191
668710 97270
717822 312517
827877 133673
94829 631625
637941 242155
66953 665337
453307 521081
351479 677232
870359 222798
186573 585698
101449 374482
655338 217810
909796 650129
634855 74481
264092 150468
725755 348061
664955 295698
136615 801341
975558 142698
866160 219494
434876 534417
551396 312886
137223 600920
904481 207638
300117 365805
371159 737688
667477 303207
363502 682419
767864 313431
53634 825111
680965 295924
719316 257663
866700 199494
591233 323065
168783 503861
371164 737912
575034 281938
939466 619281
70637 233066
65237 807973
62697 213615
612416 298994
44707 187877
370019 740852
839761 223491
264060 487595
116682 729713
637396 239815
973551 253283
917019 718606
370821 737586
366590 740146
366921 741048
602663 294832
370153 743869
666189 146067
632246 319459
436195 543883
726040 505771
423198 560316
368436 741892
368829 741725
311904 25486
52033 198625
883474 533765
769563 246000
272800 188804
636867 240445
881801 651491
59535 213003
367285 739659
257080 454892
362031 737620
406040 419818
86061 204330
872139 222163
741563 481924
422473 545069
653787 103150
365360 757825
201208 610712
207923 586603
208020 603930
851592 222145
51046 224661
451364 534685
743070 110621
367717 742291
415518 558318
883276 127392
293333 121099
665490 272349
665808 964416
684565 286959
650479 122928
258771 360872
226930 417140
371077 745711
68519 235206
402474 427591
181237 602609
710561 263703
370292 745834
903284 625614
857874 861617
715530 272730
375981 741212
445640 384920
597024 297899
361712 737412
698772 230902
623469 230629
664061 72496
687374 245423
653715 125397
361494 736893
658264 294420
648908 113777
405025 427785
830828 614815
859808 203249
683628 208624
637014 130749
655060 254945
387840 738620
677741 69455
59843 229502
475631 113982
369774 738884
217556 620631
661854 79300
691125 81949
613771 192582
70564 251322
249892 430524
426612 548357
541455 739649
820626 216969
456316 532324
266280 198603
81098 677201
889245 824468
402946 737328
366099 738594
918772 529179
851394 176779
68609 223416
656239 103548
371436 739180
772249 275474
694678 144548
609848 320946
404943 428891
46387 227139
612781 174865
291703 475645
401535 428514
699962 255837
914173 652401
912049 241349
222209 591120
724653 352975
366207 738688
861508 191806
700964 89065
296914 172929
53742 232319
45055 224880
814355 215072
595674 290399
701265 62058
689006 309975
416879 556043
778415 274446
478413 118235
576553 292638
827089 207365
436283 543283
419749 553141
612655 316263
911455 541547
679236 71244
827197 713081
425692 547433
910557 651587
187698 544388
857759 220178
367090 743321
839363 208711
168771 502404
717446 130384
435380 556301
369937 741060
651607 57081
69965 195465
864786 214886
401644 727387
852894 200615
347254 681105
946097 110630
630715 405383
354526 683342
353686 674247
432615 555855
168013 501741
825379 136272
622447 26017
547520 344628
656715 284561
876347 860672
359867 740279
592498 284456
639889 244630
425428 550642
530654 435417
302219 459465
302373 169113
432540 555038
651990 89777
662007 107782
672118 141604
763506 308042
467370 627196
799951 262036
435138 543130
693464 317580
27654 245752
579006 301438
636242 238320
686969 156357
82999 232686
869017 225482
98291 844247
199453 93820
880171 151697
903132 455398
881298 179363
21450 209965
832071 185879
673576 285850
378408 743740
911248 650168
639075 240760
202978 587808
170776 501892
203382 94565
149233 100395
880576 907767
443053 151612
858274 185254
359951 741564
131584 842113
283014 158256
712131 290950
592249 312017
168592 502560
724575 500058
369827 740448
153860 422952
120347 348892
833298 564831
756837 746354
420776 554243
366412 739347
429043 551371
431768 547610
164185 256034
48373 198700
114377 663683
656783 267413
475623 115444
364359 739556
180700 755024
199142 455126
198700 604149
853734 633650
911315 648625
270064 499842
242324 159768
169977 502019
894547 585103
305606 171868
229689 590805
67889 224307
196605 616533
168932 503341
481766 487069
530686 488822
846471 204867
751777 256957
444489 551982
233484 140341
322391 96162
522783 468435
448912 534021
637214 241254
559489 242837
658218 116821
845028 182706
370536 742643
375898 313296
364626 739278
291850 128058
68185 279199
675937 82818
596188 100316
890027 758819
407856 433232
193676 603486
370459 740237
163296 940948
744809 211221
124247 81724
366255 742171
782761 224529
362463 741312
163978 317141
665067 107179
729483 485621
604986 291571
608944 128568
455372 529374
651635 91048
783393 240139
634822 237149
372111 741695
130638 55891
620520 43290
912015 13247
671616 94007
644558 176951
360041 736104
647885 788760
684956 359082
547343 448132
400135 428479
946449 515298
368059 738694
763435 237160
646629 108305
732629 249670
366306 739654
120108 880815
736699 273676
630878 235229
69168 216241
462166 968494
663506 107171
915346 653140
669406 279617
638109 238985
588209 594956
851047 215559
47975 237570
127131 378817
371038 743373
439374 546451
910025 650927
73771 835224
598890 111050
763427 942792
361244 737755
368651 740259
455649 534872
476339 114763
791985 225089
849154 204051
662688 274621
438170 550833
622916 75096
873474 198475
46647 233237
234402 506361
372070 744702
359958 742852
618940 57453
396795 422438
131059 146912
913319 651778
399496 424142
67706 190258
734427 968726
737731 485157
634680 265700
449366 531778
863250 203467
669831 256805
866944 204061
879473 181949
426614 548086
434168 556598
86412 219807
909655 648039
397118 427537
378432 755606
197891 95095
374785 739495
723520 490622
367995 740819
374666 744131
37219 834746
373091 741457
360845 740733
641566 81349
913501 653534
657474 144939
102304 210596
829982 132169
449054 82399
647076 335372
368808 738458
371573 743244
668228 285515
666759 117886
378150 740350
318529 143773
407030 554266
667541 107005
749797 304957
290897 486528
179889 880007
700821 272800
396702 732676
592712 232346
839093 212313
166677 166842
751221 232604
431502 551004
870775 213141
764045 310598
539243 361999
637898 243085
598024 141603
646796 275196
820237 221854
416129 555412
194252 90167
349906 326459
743155 264054
506574 680501
910905 648800
813137 212142
295557 113034
889417 703060
426274 557432
218970 594058
955946 91900
536025 365027
760602 227773
673617 223713
741617 131038
847900 218831
677077 217209
374098 732116
143988 734929
822129 233480
58457 268522
366613 740961
369332 739958
403965 433314
891607 183984
71999 59818
373223 743784
842147 155244
425044 555084
41190 207491
368854 738945
443535 537880
631149 208109
935525 85667
595579 79685
576228 382494
910737 647210
3215 232738
305686 146141
425910 561876
686499 60883
370104 742168
426685 534933
734213 271808
80810 648767
371824 739033
92643 216762
775567 239029
691591 318067
356121 997262
811611 623476
368815 741001
65399 176393
304385 167635
363491 737900
922575 902016
323669 167747
310501 125187
642320 291667
642672 313956
366275 742381
635575 92833
412141 798132
207441 103425
706547 164446
649311 251327
544662 298644
861666 196724
203287 184257
328942 423277
667287 94310
582454 347055
65965 262178
397893 729512
61770 194129
374766 745437
422290 548607
65306 180740
573802 430411
950798 411482
167561 89535
847922 199004
386752 739019
512522 445754
658632 238777
655452 292843
74866 214752
183422 170085
897365 732534
493168 457153
839814 263795
674288 240684
70336 230199
214733 102942
901911 467939
333241 182485
609909 301014
373139 739375
273867 420001
733068 291462
742689 494002
368977 734121
369185 741695
621562 280131
909013 646363
86847 245023
369091 738737
360658 697065
546931 356297
431829 545925
679942 156523
866164 189581
665662 105566
349639 17981
606530 152936
166468 503622
220540 596034
911572 649055
211987 91357
729461 318940
915749 759496
580586 232848
643024 35592
417594 558209
665561 325155
288896 110080
259938 332356
145914 645442
878551 285162
841846 208099
368832 740943
176775 859897
99307 231838
221416 608884
600329 310420
176450 67925
360122 692802
170751 503146
224454 395563
176168 93603
828341 130331
668462 49389
985087 194054
156744 604524
535253 461647
813093 236064
729217 502814
201259 94571
51047 215775
363581 678774
129577 206582
642817 85966
195015 604466
639263 243632
50931 18273
220674 539274
367195 740378
862924 168269
154924 57346
909645 646904
58663 215013
454967 531721
665405 119593
370746 742027
807371 276202
439929 533901
656909 315586
638796 285012
676291 80377
667693 104638
391934 740384
699132 254724
79240 243800
203305 19423
733964 59524
824571 202725
778336 244707
296450 667844
364523 738806
371329 743763
912318 651236
622257 170418
626762 289845
699350 55475
513791 424653
859563 189468
217635 162486
340810 168085
510752 520847
308961 113706
475003 115943
693128 288205
102990 665631
362431 237161
415876 549784
270879 113528
367616 739706
830353 531120
925796 904448
668979 135661
778646 276627
634786 236786
368033 739874
859066 209593
812494 216682
391710 431464
364432 740413
743494 481238
821815 247676
432543 553389
371503 736659
238263 315415
718767 90392
711985 269611
879286 351113
951736 191321
371583 744577
475451 115850
475252 118289
561785 139941
59487 224903
29070 795709
911560 650149
627411 84068
636093 239756
366746 740803
667630 284634
242386 98355
559982 442821
434130 546556
113660 378394
868779 600285
475285 119074
789549 231295
659542 84355
679896 285722
744285 272464
131604 398722
329217 131481
406005 729468
693946 308404
615144 340166
769386 230134
368368 743050
664895 202555
837967 215351
366332 739691
497230 451034
366167 741183
120913 173512
361853 742805
426090 556267
696297 142454
801037 309447
254895 457769
798881 320724
371082 743207
53955 226182
458535 535412
301835 489066
76712 826948
211801 606518
313154 126100
478412 264812
168107 504247
235584 118537
266150 468893
374226 740417
566406 570483
439217 534526
401433 426593
915076 653027
855814 205914
48088 223803
513274 445806
718563 495802
364777 742395
843095 499425
115142 361533
896826 678823
22731 202462
805119 235925
735493 253375
377230 741996
875394 232123
597723 325135
856800 207005
633997 164563
674092 291033
678814 129046
366759 741046
590319 877824
813362 248945
425414 548407
661669 108296
359864 677622
911232 644514
372311 742919
720444 292045
853074 249501
620390 288343
884823 199774
612297 96753
636928 54689
63477 246248
405258 427229
365801 745889
367148 744916
631588 233483
359433 743820
910202 651916
829918 278422
588519 269859
605016 296550
647424 158609
448814 533550
429071 550946
479207 444946
694666 89920
428519 556498
367009 742177
177991 904668
31675 221086
356562 677099
199272 93423
427713 565529
86424 257387
919131 732390
73755 230977
215781 88381
800473 213003
935702 834202
476179 119462
673563 301385
426860 542615
818721 226137
746480 234301
115015 810549
258562 23559
712407 152834
84405 852755
519741 289709
745095 236199
830859 131775
823650 130697
210507 34948
887273 910490
353245 664871
113489 876981
223414 78734
297645 355281
95179 221641
713200 279678
440469 544348
359390 741719
667306 248263
803739 262042
297729 147623
122440 624334
628791 168397
683520 286563
424632 554689
667048 363682
99176 677425
707215 274214
404322 432223
645212 303071
701929 184896
362136 739828
501196 570079
93351 185927
281998 143394
789692 241243
368718 742227
914949 747224
596746 85492
375827 741962
662658 351657
61181 218022
366445 738593
431112 451342
630315 266467
129462 862074
364185 744117
401777 423027
165110 88108
806404 239436
370944 736292
912514 650099
416123 559201
48591 198090
700522 269510
434198 552807
658838 223664
152002 803529
511233 449028
369828 739528
692278 281717
417855 554240
199412 152885
246612 148789
418896 710722
134195 412547
101172 684315
407382 556914
663996 312962
232422 301076
211870 830000
655296 274678
333205 414876
284243 347070
421627 558256
415302 549020
783435 295787
822585 230333
793754 236928
639301 362249
369177 742903
577268 111771
364694 737593
190147 596835
366221 679295
692516 109999
987241 528507
908054 91712
555693 931067
684356 174301
707939 111322
713904 24069
757418 315516
862011 240788
340069 99488
366184 736523
612779 333908
364461 742208
635642 237916
855023 309728
39580 214938
620565 292905
427532 550004
435844 542354
577634 330696
677489 282807
369722 741533
602344 308549
965541 725433
853138 610511
355026 349123
830202 582299
370584 743540
114099 861229
55245 255012
902234 127620
399498 754781
365974 741153
672518 323902
668705 294779
901532 767823
366402 741464
433392 558236
578767 90701
85962 227415
588179 341464
691543 125528
60726 692211
404426 426897
602129 280631
451939 282782
370348 742813
364779 740690
670370 290978
912077 646564
313161 132991
369729 740805
688107 118707
367785 737564
718050 302788
992667 42785
823751 130844
912861 649628
203438 92721
668047 289665
949175 611330
739131 318952
372062 739828
190632 844443
750270 393461
474798 116315
647238 284134
426227 547715
363008 741901
306285 179506
784415 287747
53360 235170
72759 222711
853227 192883
53198 191703
368464 739339
674087 106296
400283 424010
651502 16882
373674 738843
636193 238763
484689 427567
205178 104685
548618 468744
49513 200439
88636 199543
970154 932926
206977 608355
368318 740801
367855 738729
371507 739346
653644 287901
692459 356368
363703 739396
813959 221788
669774 198722
402872 430420
651865 126725
364762 736784
366337 738808
26173 477571
633546 209191
396101 393505
428600 550213
410530 558734
766412 331397
645107 290445
177529 106179
167901 499245
197480 618443
601988 472610
211349 611770
253677 110535
388285 64620
371408 742679
680444 159084
367964 54294
305791 428564
997853 142325
666114 101698
370443 744340
363181 740871
368584 739273
367539 739475
908613 645010
370287 742288
654434 103459
651312 284393
9339 213802
439635 531176
436443 549099
374805 740206
205672 593661
663741 289284
315793 125608
726392 492707
690401 742330
683125 116962
425927 551253
430386 556771
412428 550067
359502 691487
58168 233498
112213 92104
407261 431631
910856 650396
168447 502959
363691 679002
663459 206717
416596 554762
873025 230620
854337 201438
371026 741603
369589 741722
616685 279780
912009 684339
214834 618888
755614 238713
422854 553245
405186 429506
80324 228192
246813 148754
415750 553531
724824 273287
405273 423054
368039 739726
317034 152039
415254 555837
926294 567538
450921 533224
750007 280592
409340 730036
704328 123429
239759 252999
724129 271554
78487 218366
667095 270992
82607 231181
818723 196127
663242 105912
468068 922446
402229 429121
375347 743319
268824 208908
213169 600088
148325 917721
476912 119236
427794 549179
652922 287221
609209 286184
368702 740407
372286 737688
369932 742905
749148 203098
819816 259303
368373 740137
59369 194158
429217 556318
650514 277267
710235 407658
368971 740403
734326 238028
244347 175973
443618 533967
102083 703013
670734 291384
370733 740141
655376 103353
156482 234749
965130 265797
753845 57082
784994 198282
369291 741257
339383 376880
138641 400790
935276 632860
826044 130643
615908 283749
855799 210756
604056 263244
612071 254557
693519 297762
807439 236583
647294 269175
835218 269794
34357 202387
409529 764029
913507 650372
472423 115375
742088 271762
675764 268924
761026 228816
748838 269222
361815 738380
368241 739509
303267 566728
197190 572887
527958 343547
395084 727110
348377 558603
599767 247542
701590 291100
677807 264477
453350 531845
689440 227692
369503 741029
691015 137796
733489 260427
881932 149353
710841 303849
805792 241269
911397 649855
980774 71854
423332 555171
366721 740028
784468 272950
760244 265460
61106 189894
688538 119465
662803 94599
815874 245470
664594 252082
673381 290074
110740 61462
185823 413212
855395 174879
782209 277875
890173 193768
886100 208172
411897 549459
93752 103907
57575 235520
183831 919731
663999 107042
338052 151960
828052 129375
210407 99057
722671 490486
113584 222562
431914 556240
368820 740822
908765 649388
656439 101593
608766 248622
869567 209225
210264 590757
366057 744552
741106 558662
875706 206767
869936 223286
650907 328389
50564 216622
393148 729862
119970 79346
629688 104924
542634 263784
965205 481483
855625 580729
908600 641858
855796 598568
721865 275921
778653 220232
371798 740424
949488 112862
30514 224126
406163 427867
744748 267664
798741 423359
413231 550407
152341 710268
419593 554357
879112 646331
370072 738371
288636 134314
704127 294202
764370 430434
806442 257921
421588 551925
911776 651666
736023 487572
62804 243628
369282 738504
428736 547442
660600 103974
773304 247547
355793 693984
632957 235959
640019 986433
665080 72145
432260 545596
740969 151165
474765 113001
819083 204189
295860 629855
70963 218356
868174 209440
428737 556216
277320 131524
373304 746212
366000 739088
58981 153873
52324 262504
366090 739194
261736 675788
187768 432529
374607 742789
51365 231237
100631 217536
674779 259211
369091 741215
607689 101224
266636 121010
365492 739979
552645 461686
750878 214614
731010 256229
976468 300585
111469 681833
691312 63459
476400 119602
59541 219220
604681 340245
370854 735322
445637 531687
870898 773557
710613 245372
980218 585994
366451 744038
401384 429767
670093 286818
170506 844393
713511 495104
857424 211537
626102 88427
357852 689090
311889 530140
543028 173483
431397 549849
808527 192707
170534 139987
424463 556982
663347 276406
778413 190209
664513 298653
637618 242500
627095 165398
406213 430683
674165 244671
366025 745697
725296 232727
726809 500451
121057 562617
212162 599078
67460 208970
520412 444839
111481 682708
544063 282132
722837 253250
638564 99433
561543 525828
59584 818175
827125 132623
335365 116388
675307 286875
66143 236995
864380 205938
685886 314638
280061 144511
723655 149016
915158 562498
209259 603687
418837 548709
501794 684994
603461 294813
635924 240531
436006 553490
170257 501793
158196 609570
365896 739040
909888 650296
726244 273554
272772 125334
827804 245580
448040 529172
912089 649574
38703 855284
425886 549473
744562 503205
433803 555935
365003 745555
227876 565759
46170 198802
636437 122727
641802 281575
853387 656317
327727 132176
640159 124045
180130 330039
599475 123050
144253 80153
653827 258758
472817 114742
393226 712207
41375 186188
281101 486717
66281 226708
608950 68221
29726 199516
490879 309992
780127 224140
77374 213019
69102 227649
50677 222704
442343 533744
335029 608881
228132 100683
863769 424219
666857 286202
876556 224509
433831 547199
368165 740497
617182 223697
261916 474739
101468 92965
634644 238775
846607 220609
367569 743437
372220 740616
91459 208164
793007 248994
438661 538274
602167 159958
479826 119946
241901 222861
844294 229686
105708 233925
925501 690251
364900 741477
33300 184839
857080 195343
661359 105212
404768 430126
363183 739216
661159 129224
361621 739447
38541 204417
635894 283672
371127 738863
374416 741416
98230 635917
22089 214720
812141 70852
125964 383336
168247 502418
872780 208251
601637 314331
717882 267446
601402 270152
63630 233403
366512 741899
699105 312373
832615 130112
630465 279452
37680 222802
678338 254257
213852 626616
314829 215705
368544 746979
681720 132750
803040 630698
634757 237725
21793 202096
864460 186650
873613 207013
293958 623854
362175 744877
694014 299320
493502 511904
448789 532977
861172 194027
416969 546171
215394 588723
363886 692935
665163 105066
366283 742711
62595 227831
365153 160929
137340 463912
687072 79130
361351 741471
369860 741136
617632 250080
639428 351964
713484 211482
724929 269479
205441 622223
202884 593709
636755 237821
368238 744254
448786 532955
223902 81999
597162 141972
414351 549600
11675 798323
934993 594980
886824 98979
610019 251580
183306 246266
868405 183490
420362 104153
687067 593992
675872 291644
367567 742501
969371 420276
794408 276575
665455 104741
396975 436203
24833 226084
88192 839263
656317 102700
44602 190137
371102 739745
366398 741099
204102 91316
366741 740080
370597 742593
289101 167052
404725 431697
910695 648107
689453 262672
367424 738271
912321 649621
399495 429148
97097 846670
357157 683807
960860 865359
732386 506410
746531 480773
653506 94550
887521 630028
476461 119365
214178 603797
309534 883908
406290 433535
447963 532083
635653 235758
360296 734360
205208 170795
817615 266440
60090 226061
911839 650902
537204 423628
661117 204003
886299 194785
367704 738827
56942 223402
821977 211962
488681 738591
406231 422827
368838 740900
788240 217850
66115 267014
369300 740183
672827 136496
420557 558276
609493 64109
901949 525622
658567 290972
440071 554065
366816 738842
735057 67272
812488 481395
224533 70824
94911 397863
667492 298761
510183 430699
242586 151387
432230 548568
417369 738902
728125 812763
272957 146954
123079 355681
701621 158910
24539 951992
700323 245324
360866 736336
482843 699597
813452 233029
244743 459234
356189 961244
904697 648986
787089 311938
427071 560059
362822 742345
657400 620938
704082 251897
669290 309332
401789 429826
778676 642085
43862 223616
366679 736275
66125 207646
347715 157805
368836 739626
636073 239825
202803 92873
51464 169076
363909 737485
640532 56257
910563 652032
186923 758593
703935 341568
396792 426687
158210 673052
408073 554286
199675 588562
443050 538396
653730 269311
411032 823037
403056 624137
828726 130403
712347 31573
639007 280245
82291 195996
758386 331639
912844 120268
850959 163496
666133 107049
474587 112983
58240 837887
753761 263738
57039 199497
399667 429732
720011 340738
174456 155814
206241 612376
394475 433807
428129 555765
778579 205259
127207 768562
744952 233989
703837 199358
622760 341487
638533 328011
188872 581972
667145 35699
880410 542081
300812 147824
154683 842510
700771 261652
911839 650971
370221 741440
336520 925957
808297 492475
98664 454516
786610 241411
642191 302262
443864 531538
438161 553392
909733 651384
487568 668110
702189 260933
731138 250699
422493 552034
968066 117151
661624 106133
589763 896752
936635 644461
658597 285010
400097 427038
516377 371695
404954 430681
623724 112290
876545 226013
370449 739095
907470 648011
704012 270933
561832 932320
153983 112964
818504 229623
370641 740041
649179 228615
51803 210476
400739 433971
812400 247267
192645 458105
170441 502955
582534 291260
861520 200406
647482 338881
910625 646925
373586 743376
238731 113023
194396 579417
367933 739432
592361 256569
68578 839557
661839 319877
422290 552809
648944 347866
659499 151655
417264 560348
44600 202008
280269 423957
175910 455151
85610 748647
52948 177420
363689 742596
208552 606572
450125 102474
367423 736652
668041 62653
371620 744568
366581 738581
368031 742208
372085 741083
371289 741739
124054 864180
737508 491908
824109 129783
436115 557807
885637 191649
196031 74314
711162 456011
536713 441209
817091 227005
402546 435082
542912 488536
840655 226357
367150 736788
696700 142925
93933 228618
845030 215103
679093 167771
646645 283490
622799 210249
672301 319270
236855 437736
209988 601104
365135 739682
204219 596241
362123 673802
828985 240101
838707 132882
907968 646131
746806 262867
624125 294211
640241 120703
92434 220536
188681 585993
314882 137933
399961 428170
397028 918087
805116 278081
320549 319012
863674 187746
683384 273858
351302 496745
367586 794872
882274 573095
375219 741986
891957 121627
634416 253076
452699 531186
639386 37474
788569 240613
447028 532489
602738 323951
370691 742039
637730 240715
705446 220843
368283 743175
697389 360501
365482 742792
262357 403898
87592 194956
458444 532735
371067 741679
742695 105472
687337 285715
679893 986203
476530 118941
66633 522641
534412 281114
87013 212036
370227 741220
625027 594925
288087 463119
680165 273098
82884 196074
416787 562229
630597 359887
865935 204124
234756 453213
371788 736280
123013 388370
87714 205758
75270 217073
642847 118468
58511 209079
789646 239499
49528 601032
369257 739810
683323 323088
800256 226575
418690 547184
858450 624612
369124 739721
167883 502948
408974 717013
675381 293293
920104 897031
415301 557103
727547 506286
178343 175983
556936 372943
85754 221978
404194 430729
372596 739823
169117 886037
665349 106268
480480 124529
622287 143388
41895 196943
92733 652667
295752 167124
819985 251679
418674 543354
372903 742552
905698 93273
875331 235932
800995 248197
809554 212620
270332 430020
48429 189081
209270 593678
840425 926271
371672 742511
699240 282047
146425 435687
135402 846746
411379 558419
295414 128630
144812 886429
186426 600331
106955 222843
370795 744986
815033 234536
74013 223864
367624 743863
342405 389890
685517 218223
568252 299827
126782 151198
200143 590508
403179 426839
875301 872399
419915 323738
638376 239831
824702 237067
198927 603651
41939 795705
727463 256405
210885 607396
785583 291175
128223 683464
425717 552899
617295 318314
667766 283829
82191 191917
906241 81394
472298 111598
638903 342527
56283 774305
600246 629861
364432 742411
661390 332860
678369 88144
357710 691490
664143 104121
157336 71320
932880 618732
366737 739687
145392 95733
712748 283642
825750 241669
645705 325877
929379 730559
197964 90450
925511 294334
366326 743794
551269 300746
656551 101548
605623 574537
875082 617091
910486 650310
681063 283087
721347 281991
263846 141329
371369 741160
373508 739986
294838 99458
952264 261101
818577 539729
134455 421280
360952 739358
182699 45469
697256 303182
775475 253800
448803 535589
28937 182343
38565 171225
66258 200841
174968 139511
475995 118432
691113 73443
31078 237146
373255 741102
186869 57198
120382 781047
366290 741397
645226 105300
376324 743012
27338 674534
874661 676081
659791 104436
155935 932330
326287 59313
882197 96542
42622 211134
598277 351812
422137 717627
22328 216000
626840 57729
403901 734993
946022 56251
437243 550185
433383 552411
23392 660310
849695 209239
599066 299989
706086 263135
900315 593939
640108 312097
134526 165402
111058 584783
369510 740048
614135 396659
204299 577968
134291 180537
398347 433922
644231 824611
859707 597386
687339 247410
268920 100568
690739 230948
434913 549025
155808 59776
257487 438092
668150 103578
833107 423435
841842 182939
366112 741832
5681 788182
827641 134127
411050 550281
871600 218489
425944 545825
911643 605257
966652 89523
35732 197460
440871 533267
563152 205700
76844 734099
192449 594105
370308 739964
365059 743684
877174 686486
811772 213590
994231 899911
371410 744765
422518 562441
803619 254627
738944 504280
872198 208120
139548 651822
372513 738528
820567 254329
854746 155272
28582 202182
477526 411672
366392 736848
53133 233216
168785 551246
626681 94274
726616 495670
850557 174714
358147 674441
506378 445584
641406 243073
403732 444488
370997 740077
296302 138217
826744 131974
365965 743610
847321 222021
914203 648700
55348 237157
399232 719998
407184 724661
261762 482416
766837 148020
92001 210009
636585 221355
679803 265704
638156 240190
432671 548422
206765 142755
872739 176681
401989 532280
980854 643324
708614 326638
477466 415937
435321 551755
728045 502564
641885 266464
561472 719410
367346 739776
823660 240626
632801 324474
181744 605856
685189 290783
686602 107029
308832 179636
373491 740524
168143 502950
238784 404035
283969 153767
165413 582204
864899 163378
156381 149253
368841 743039
62389 183422
605759 359228
829105 130749
625776 310389
472075 462828
78959 216166
204683 830898
668939 62584
610197 302637
638154 117044
368559 743366
655198 271534
440158 532150
874840 575979
302484 337821
912450 651328
883113 481036
830491 198615
82373 897521
518695 435130
364221 741908
367141 741596
756230 498360
700460 253809
671597 248319
360849 741658
200420 91762
620262 318882
368531 742016
408610 751520
832128 131297
427859 540318
664955 315223
430996 558750
248933 883591
398849 436779
164619 414019
443543 531834
189797 65648
657819 138944
651113 287348
367006 742116
800928 237119
986267 861609
175389 470612
398346 430084
536967 423195
149162 393208
669401 101624
369930 738907
634062 236007
402460 425271
660960 304898
847689 185837
404981 432736
633731 237737
724938 272670
51780 246476
425422 553162
917336 568864
673987 50015
589349 126751
89950 242096
364857 744080
18003 844112
429943 551212
702251 588313
420937 551004
632169 93591
691856 72358
894102 603045
892306 590649
932049 79307
394852 427431
372029 742840
441821 534847
531599 448989
360864 742287
372524 151957
860702 181741
451239 532098
636244 240077
197009 429247
846194 231211
867796 195084
426124 550525
916684 698700
365752 739543
421113 559272
492006 764585
827506 131037
367821 741369
412887 548711
712257 191906
823730 255866
829598 135530
365132 740527
53052 205390
367597 738888
373506 741648
399888 740644
654872 276825
646486 325392
59070 253508
229029 625466
570111 282790
364016 740800
369286 741943
638202 207138
77777 665193
912055 650643
668173 125966
950017 652612
876025 95432
283753 326209
424333 554864
285998 158662
666195 104018
875593 222493
367937 742232
319148 160301
365911 739862
634248 237945
931800 657378
835556 225041
690084 257999
715027 247842
291953 496921
877458 178576
20216 230481
236799 199175
655490 106183
928215 846657
833623 252366
474890 115110
130453 147391
668267 286648
669556 243480
317811 129047
265806 140504
428151 553895
869066 185933
784638 223720
665290 107545
543284 461205
661897 290014
711393 109722
925649 388978
197511 441248
669811 261438
220388 390048
865171 198159
748409 266943
451075 537296
68822 217500
683346 154307
669638 288372
911629 653858
1069 765559
307857 233105
58510 877269
908632 758992
854335 194146
704983 277913
370650 741740
367819 739858
729790 236242
910291 651617
373133 737265
369997 744604
366778 741533
860631 210369
368149 743039
264079 77487
369135 739271
229765 589462
66253 205699
664059 101840
182650 112051
334561 637831
843115 194767
631694 236442
369921 739775
659152 45316
431968 550689
125061 803068
187308 857747
304670 89489
803893 231200
626987 135136
267064 575365
232796 149888
633316 345050
391214 540129
417764 559097
74501 203106
773532 265420
629906 75432
361553 741727
734615 138892
49773 243567
696940 136515
53136 198411
139156 856819
193094 5992
266546 159217
423246 556061
369254 744517
357662 690592
882894 561402
874150 559294
369242 743001
653419 101416
162902 421315
423083 561303
426444 557349
202054 155822
456943 532478
911435 652598
38883 975665
690489 237634
93370 833417
272863 468273
369380 741809
394140 426771
639247 242489
641867 299015
434967 552574
632710 238937
273491 142019
625107 310524
204008 95092
310320 443690
223074 14859
639389 20982
50352 839090
163602 621225
748518 259009
834860 191627
691647 219654
355496 984639
298271 90929
361128 738883
634058 236824
371077 740246
604229 307405
370324 738709
32360 223329
371262 739787
639725 245729
131259 635055
630845 94434
274464 152831
912334 651922
62622 216633
662261 104940
237553 98179
669975 93095
371731 738449
722743 268948
875361 577843
85367 744203
393438 253524
599736 101864
684349 297419
59328 184608
367435 745084
370412 737492
911578 650239
370745 746127
147048 115736
427514 556166
678599 150263
873800 190631
841503 609812
116845 648783
669366 260920
754702 210070
373347 739842
390001 85635
835405 270531
713318 204139
6102 230636
421255 562556
37587 181109
875571 243935
675214 237788
661850 226504
477815 121170
54255 208214
784451 213999
156004 667763
294364 409723
657083 104974
648315 267653
45094 195650
424844 550455
42731 182012
167472 503580
723136 168529
818090 207515
196934 73432
422981 555908
291023 253136
558773 358623
195371 587119
639015 302057
474610 120507
622000 330791
393795 429895
486837 905989
679642 283073
55335 213055
729282 298523
582112 221821
500756 451136
955430 76548
415366 549595
885571 185085
967681 827053
364109 742901
248278 459416
786991 327409
165617 830813
39437 377630
908971 844507
661987 97885
367341 741698
217027 396903
52421 183506
816287 222890
47359 204150
425986 548457
92249 227643
639493 257013
776277 232886
372675 738041
665508 287537
138502 846553
912238 649100
636258 317573
160882 653279
368576 741481
373148 736920
543891 450927
915901 653537
369815 740687
912342 643750
287128 131711
636329 239212
166133 128829
227173 412386
159618 631533
306782 135200
870615 198415
46733 206993
598982 264690
666648 59885
454425 342214
102108 206087
661764 328627
357137 680729
635829 237439
748490 500909
261851 258597
572793 43564
430152 556357
673001 97120
670207 225485
583848 308351
647331 365559
84581 222933
76096 316536
892827 656355
404029 428983
800305 208262
107141 156410
605083 321506
840473 229732
910392 648014
627902 113248
277702 166351
635435 237696
604805 240407
873613 710559
94931 833737
887674 111595
706793 283336
278841 574376
418329 551217
466285 35080
738970 227582
705436 227336
394721 434847
633995 59624
430721 547071
51364 49935
704590 233406
819839 249039
75690 244367
46479 814262
168049 600647
545547 954070
425293 560429
676558 297043
364340 738784
364049 740956
816173 243367
357792 681161
687642 253299
666667 285062
366678 740603
665141 238730
864793 204112
70030 181974
135239 414177
681019 287461
13611 455195
909640 649832
203913 620695
544391 450861
420974 554668
828873 129023
650120 388178
112255 638917
501802 859017
373684 742029
539689 730363
747258 340613
696361 82574
696108 203955
859056 197720
706059 334852
378200 739795
393916 423556
859624 203216
125470 533201
141379 386381
551498 460619
823229 307955
478534 737783
848755 246367
356313 495401
913911 651018
423072 555732
280476 592369
619958 299770
474326 115599
98167 694509
195457 85546
77788 236792
427453 545999
372528 739115
11208 825316
367749 742374
694373 259398
48773 232311
610728 265142
367347 740857
368258 739733
674905 287643
752792 258281
169140 44993
715986 240747
640113 303787
268776 423067
430156 556003
364671 741509
356818 674229
30654 835847
430046 551087
412401 559299
920866 669109
373361 736635
642659 311366
371639 741664
425257 548452
369539 741552
392969 430511
755239 294196
170590 504391
395546 428134
366773 742591
635768 238830
426772 554146
451708 543671
83526 419759
531467 446353
720330 320701
538219 278701
81572 852175
328145 459046
749108 257064
432093 542752
152307 837441
287695 326084
373256 739892
72555 200285
657771 337386
39880 249131
117229 877507
39259 222458
284625 353473
660063 105189
632981 238150
423757 130741
266889 95664
648543 104660
916667 872506
237675 343629
171254 504086
128294 143324
159552 120935
372493 741122
64714 224482
709008 115935
79545 218005
637344 205599
126158 812673
354620 679136
338953 124131
659117 108078
925702 260648
400157 431435
410298 406515
704403 358695
374272 740303
646505 319553
515737 271134
237086 373864
699906 267670
401840 434048
59982 239590
500623 450638
139729 880975
271303 132076
671997 309542
849713 265099
476816 118733
893766 585566
504753 401980
196012 612181
421949 552366
370621 740577
645059 337429
120032 170570
436320 331654
646758 97271
911096 649648
710918 244502
812378 143450
750894 252563
637080 104267
515705 446286
750595 284408
864006 284626
948152 740997
424070 562223
123344 401048
195090 91520
366322 741008
840052 274340
369611 735566
136646 628856
430611 156218
602603 257938
410417 550393
365349 739321
89865 681772
113430 248940
643787 110169
871690 198734
776202 226755
876020 590138
156350 360507
279591 427297
194641 80991
639679 286066
315624 103969
354139 670726
253340 164997
368222 741850
258204 304999
397395 429916
856999 365555
762713 260574
447733 532265
399769 438962
401117 430736
201972 92005
313694 160946
200299 90844
586816 876057
654531 109626
623923 50666
310417 130442
667622 285849
241152 155652
643457 288402
51954 223028
113125 394509
675918 114871
361392 743417
941230 78900
369006 691826
691082 286255
690229 38814
367191 735557
375463 742939
848558 231728
368782 745376
300538 119537
366967 738777
385843 664749
62375 251200
20098 212101
679831 294130
427784 556009
425463 552102
662013 282575
353624 701265
202433 134929
436904 360545
401351 428984
128006 30196
642127 327328
852856 710117
363945 739606
887023 118663
246432 863772
432078 554209
699090 377303
111531 598066
857851 140543
637411 239913
911691 650599
169734 503393
363547 743919
154267 406618
843106 205908
639707 285311
889213 263365
68752 179050
428806 555655
637335 242500
853803 212332
824952 222618
367254 741402
427219 941025
845781 226900
367726 739156
911265 649202
592034 307866
999083 682027
372289 742633
176692 899281
68834 245508
671497 237949
763668 125341
474117 112600
828056 131156
832418 242712
365258 744521
440126 532802
866925 194856
201844 91589
32562 197102
672028 285344
325467 347300
910253 647421
658702 292238
916385 653311
191996 604382
858984 209211
429900 546221
144901 164022
333939 417517
822710 219818
358964 738438
52407 138862
374328 741512
36512 196880
775311 217409
371243 736609
866800 682805
497151 246715
369214 741645
372561 739984
213945 188844
403673 730003
847754 200788
404649 432381
714806 64441
869094 179326
226226 882430
708621 265110
715806 277155
585693 97060
444746 532491
804619 279922
209817 153602
642574 248110
585591 344910
364898 738987
477774 122068
55408 183876
756000 245793
439796 544553
654395 103844
765630 336474
831400 182946
448975 534623
732577 255390
128789 631860
370664 739835
186873 599111
409025 554492
294550 122692
711342 102002
654606 283459
673076 263892
112432 615063
198482 617985
912823 648111
477057 415225
759105 340432
366760 738177
975921 72300
138728 644744
637202 238772
648053 59791
365179 738804
359854 421197
369688 739486
369531 739883
58538 837163
719032 489408
119705 636600
367683 738018
826702 218471
523224 316676
710483 869786
991453 321614
700543 310669
366490 741695
87066 210100
367513 743938
621168 327778
353002 680638
228477 599704
708117 291058
199205 599104
677494 283423
664032 107094
223967 96081
684760 292832
198551 92604
70141 213452
25480 235361
448220 531508
334278 140910
539488 451897
535449 451661
651760 107904
420038 736951
373435 738702
365169 741107
425257 549165
375853 740880
399943 426517
693818 317216
622630 448774
696600 116607
26614 228326
634285 238606
319354 361019
900016 107444
669618 315071
910056 638015
662440 105376
874996 593208
206626 621592
879261 200055
876545 148860
364983 741898
812069 227452
869722 478893
437257 542781
369436 740550
404547 430336
248871 240141
731630 288997
636128 219233
409412 243487
673854 53434
931209 603914
456551 533863
373332 739369
401573 429250
435855 552137
371120 739693
369045 745110
188794 297586
375934 739857
283169 181685
368178 737339
663045 107889
890420 643869
372590 740134
93509 233901
426383 551895
146107 83107
403632 431984
755875 233431
189038 175310
656124 103600
185030 586637
260578 492105
213609 615482
600019 126312
795418 234961
414056 555209
181318 120244
364930 737002
419504 555251
521392 462278
99980 205597
367681 738324
843361 197408
431585 552473
421355 554413
838474 249990
871474 188195
368147 744044
704493 222815
792153 153949
399828 436167
193891 605505
286180 122208
908283 650019
962095 618685
368440 740361
620215 171827
723051 99573
830615 232938
566743 486878
844256 215169
506326 42548
815035 215073
169397 504204
616357 120458
370032 739738
869466 201172
472005 113905
402981 727135
642412 184611
144015 849092
636164 241772
672030 102657
662543 306823
69335 163641
718596 492788
64198 213226
67921 557107
432735 545106
363546 741652
683034 212034
916059 649379
690234 143351
654155 182116
920473 55918
683586 245738
378234 935588
665203 103267
367018 742132
685537 255625
819546 250755
198792 92833
371010 740804
688767 292748
187438 77980
911562 651590
704488 310199
358575 738536
638010 235563
98046 945363
663037 106116
825247 131165
115731 685617
672645 28717
196218 614662
598619 249850
780562 249493
373844 741425
64234 230466
306179 116783
428896 547690
812242 219876
653233 108419
514229 415236
350960 688171
259854 453718
628407 273904
95386 191423
549010 231786
161251 184452
303008 150882
361741 741423
739281 280490
447460 530966
803721 234281
371966 742803
83729 227872
445877 533316
619533 91670
715435 142758
566315 83704
580361 293582
694344 226512
670288 266581
1262 690212
365450 479159
664866 91249
761686 253853
401144 755055
367201 742134
371061 738175
631044 282281
435381 554401
913005 652301
425316 556155
260540 112281
226629 876360
14513 237825
697847 214026
351479 667817
399981 740625
868004 109528
368146 738310
371868 743705
221880 242927
436621 549784
843651 892904
364379 741571
566856 440712
121773 851950
621533 270243
798340 233092
611056 312972
365762 734523
371197 739278
605899 196316
70397 235971
76579 203739
195956 202576
755334 269750
911023 650095
367982 737706
133732 396761
667531 105374
603960 145130
715378 206938
698977 105724
50766 534254
632231 297398
71417 238290
191435 45268
672722 376669
137386 236970
368982 738270
659159 68245
681008 240354
74433 237688
362977 681633
215462 839369
366026 738561
648839 307792
864669 210142
862918 213932
363558 742949
633204 237432
791417 286390
209403 186384
98620 409722
112135 385521
52495 663064
856673 577744
914169 647758
214838 607425
65373 846625
635822 237529
74632 210969
815401 244920
670596 288634
62341 694345
820661 880470
414908 548850
378261 738881
684309 221194
365421 740514
248367 119537
662160 417400
622543 141824
627514 149405
414892 550140
442958 536206
14838 178251
420342 554663
371795 739357
55523 243268
629111 99297
425283 550882
401448 433151
628438 313000
529400 544625
552634 337070
563714 341502
372252 740736
804484 259883
618684 350651
838675 309149
795229 230461
399932 432905
292946 125167
912813 652026
341431 350044
95815 856563
169024 501161
425026 549514
796986 52010
706972 95406
552171 266933
68567 208249
371275 746219
725991 226238
713365 249456
365237 743647
205832 810632
370120 740777
221388 9402
85894 199627
366151 738436
37149 261519
258051 127538
38979 224540
860371 204307
929163 705515
229526 467501
637188 134399
362463 740760
419605 548004
669636 91123
825740 134476
373891 740735
368744 741701
580909 303417
370043 736781
425941 530301
897510 583733
928379 122968
583970 142522
863415 203131
398448 432700
609440 308326
412601 726342
614816 301552
209105 605553
601631 354956
364584 412399
370630 738502
867730 827600
221818 82613
172133 79153
914171 139280
371876 741921
340456 26818
630708 346862
441431 531784
426551 553659
658876 258923
367324 740062
721617 490489
827760 131989
666790 106719
488683 457237
369042 735823
399713 434289
336505 673793
207129 135235
78073 196830
83810 213110
370732 740933
666744 292906
357685 681292
672867 91612
635876 329193
306977 125415
903801 309280
794871 239874
168168 502935
781140 189109
593466 51574
737032 197347
678621 286928
651331 12272
419830 717421
365786 742706
920637 246717
324204 108846
491207 460691
366908 736798
377436 756484
371307 739769
167594 501344
846372 176757
613226 281028
675290 289757
672243 294395
598029 313169
284268 465528
361817 740809
575308 314520
681380 287662
658302 101604
727413 195381
835635 542510
143257 621620
365800 744427
375141 743785
860212 497886
369530 737410
666926 104004
365446 742500
649909 297102
663166 286277
439156 537496
87003 217555
707601 283580
856458 204767
597267 295576
432960 552639
232461 12458
377451 742711
369874 739453
629568 103391
857807 613269
544745 502416
796929 211088
857933 220155
832536 255351
170056 501010
662684 255455
297268 143686
168494 834987
365634 740511
373763 740831
828856 128034
618108 79828
367595 743656
369070 736871
398946 431501
735997 262959
169072 502001
650065 301948
826621 140200
157904 157213
416094 549118
637716 281439
194904 185339
611820 338609
293968 344439
860585 164864
43319 241935
34623 202683
695305 326238
65868 178028
372894 743166
221555 594011
369298 745746
209636 852975
671239 289844
619413 356674
953766 587560
582407 501844
369763 740717
661383 103366
368039 738462
363872 742881
786276 225850
637453 241264
367000 739251
366572 741409
676487 86287
562296 331978
653652 292777
373991 743162
606832 350825
659542 289088
181206 693558
623333 127976
618433 118234
86512 681873
662051 108480
431868 545145
61611 212600
744466 270658
889785 588163
957442 605516
326221 143701
728798 511118
365060 738528
103586 872822
826790 129594
366652 739422
652127 165213
813542 227041
365820 745040
334224 390054
42960 209063
666785 99656
629722 473766
110214 206329
911271 650541
549625 448713
447931 537150
647606 124300
845494 558561
156645 166482
370404 740280
156676 108753
277559 166814
714810 821210
440734 550571
703181 350458
883750 582014
359057 681300
148274 411497
68012 194439
734791 381884
127832 125031
82354 232039
405564 372689
30519 189809
883190 199812
879243 216863
362173 743194
605189 55663
778019 201573
915242 623505
809402 246024
683616 265250
517252 209440
377752 739642
168873 405822
71499 225533
961392 100589
369911 743794
667452 54549
366084 742895
859307 956069
765016 248280
744712 248167
937943 614439
371463 741396
365977 737999
995166 797519
110509 96919
240211 451937
838274 170513
426238 559708
268771 101662
630428 935044
168863 502114
370659 737976
913136 652391
405319 429408
881593 200224
366660 741302
567073 308803
193316 130243
430261 555538
44753 256273
401822 424000
630467 344485
940047 77315
368591 740634
738766 190132
644452 331481
719601 285028
994388 621621
652282 288334
97854 703880
368501 738289
614173 289160
857055 216956
696354 62050
199157 301969
713192 283686
718516 149501
850409 197064
19923 200406
436233 536901
662407 301947
370258 740451
78378 218146
449550 534388
684068 325545
362802 742566
909365 647557
730283 305493
611304 294053
697374 55887
452154 530970
400206 430622
356151 741181
701612 27975
712504 399289
415320 557190
425530 548218
202741 649966
455885 535329
230666 393751
660659 105985
368448 744703
682732 249647
623010 309189
169390 503205
362665 379479
377101 745117
370431 742566
360631 740606
358620 674331
334511 137656
860402 816368
852470 521791
54502 221480
47380 814528
368621 739946
145781 255525
368723 736584
148042 13251
653093 370136
913535 890644
29122 204282
443962 536434
909106 650817
726249 491104
451991 534009
565810 319788
662765 103094
645876 256777
660813 105579
298239 162691
854897 739358
835827 220387
39592 243148
650752 247309
363053 737239
630924 113268
698572 243146
782195 278149
390837 725432
699295 89827
719832 358285
365246 737771
865333 206788
484788 655067
116429 311768
422038 563719
675200 365387
633854 237938
432011 547683
195237 608769
88592 207942
369699 741825
366079 738745
726791 189806
403390 422958
670016 119992
794649 22859
841083 540221
928582 607956
736824 246386
679445 286774
479908 84913
194960 90663
692176 237720
817604 194167
665905 105571
370929 743816
401983 432848
688752 524042
866455 204280
726311 306678
654915 84458
907154 885164
371115 743611
698120 47612
635390 49362
679355 689448
300363 146727
74961 843929
477430 120407
454267 103502
776369 263352
666130 318925
395172 747279
362772 737970
261622 450137
110003 207580
669323 218643
827983 561265
747787 222031
758962 273033
714583 307629
676170 296761
533711 458419
311237 161710
505585 466365
365835 743814
626964 120603
667286 98751
622411 145579
58260 718329
365507 739824
887076 982599
833578 201314
355083 247194
832365 133820
351070 687419
665047 294109
662105 216631
425032 552042
362393 742978
370215 739852
370668 738197
412446 722401
687380 102590
161845 48481
642258 277104
203724 100829
933194 831087
9621 229183
614578 295973
864675 203825
913047 651463
60250 210554
444055 552646
75185 213659
410951 739310
913467 653681
789976 309037
429838 551829
737750 219806
681447 864288
70673 849059
422297 547160
666660 103235
772612 286934
627050 85063
635432 252289
782814 189092
643161 245244
911889 651308
511959 465684
72587 205903
831907 127573
877287 211440
370587 744624
757416 278687
562449 436000
873644 159130
818386 548445
130117 687790
711345 288795
639046 245437
672888 292816
214990 386862
631671 344080
69482 244562
982502 484687
174991 82505
400788 429983
420769 382207
840788 208637
34727 228627
762162 265031
326453 371916
594028 394776
864132 191214
912492 644867
354009 690780
652162 104779
848250 197206
771009 292743
364889 742681
636055 241333
256171 543729
368506 736484
744983 497562
201674 99109
369890 742600
795811 919747
367466 330114
67012 230803
369886 741096
666143 67595
871945 228241
666307 106158
73870 246428
396817 430688
912503 650787
912786 649080
637925 241598
688277 472597
802782 209368
168916 503540
636012 124399
912618 653097
661050 108952
685496 273387
371875 738530
638011 241705
291348 311737
402478 428639
915665 233070
68006 197186
663776 105462
612439 187103
869951 134178
194638 590074
668420 285559
796464 201075
374742 326594
786799 227182
283432 118288
194605 608390
366199 741938
373952 743765
168743 502335
751857 233319
183351 597451
913080 653703
187429 891403
560793 496731
361111 741816
81883 197370
421175 558562
44830 228593
837186 173027
369464 738246
60143 189994
442925 538283
498739 421016
910719 20511
437251 534799
406809 432245
405286 432540
364002 743754
713409 238870
910134 653488
854185 310044
833252 698402
705158 132263
74959 221526
175600 687560
370168 737232
367502 736916
732395 581529
601065 65371
220651 39177
368964 739543
370885 741506
933568 126191
132832 416765
23766 189995
659649 106313
83798 641058
637944 240186
53107 237012
372122 739631
38655 209641
218644 599412
612651 66842
665475 296783
826855 249260
361194 743141
890480 684580
521948 449770
366303 742112
427938 552023
496237 438487
288046 117895
217313 590258
670430 105614
685421 131735
473882 423162
473154 110239
667031 113712
126657 777691
64725 193323
246396 444675
736067 254586
523932 454964
435033 546836
663820 103250
903867 141214
35309 569638
174873 835823
40602 121272
642508 78752
860966 190849
736430 259742
506081 682821
427554 548546
432115 550105
363369 741959
313878 158330
368025 742170
542902 456399
913353 645128
703735 253014
674622 277081
368620 740039
856557 184478
99635 753600
218912 593664
632097 182755
668537 105140
353915 688425
411707 550621
201986 92991
159728 462099
364515 741753
218571 468073
222297 594912
680347 283293
768388 139843
815735 272086
487457 800476
366711 743222
297950 128734
368182 741305
700462 83857
625369 92805
426901 559073
653914 76786
734217 342276
198021 867443
363615 738484
207841 87031
652058 287053
654128 91099
907774 86350
507150 447346
18068 231607
842413 242020
205358 583038
145043 133323
365963 739906
806743 246903
923183 841358
374575 740447
648820 150512
639924 87611
638176 252264
427413 556220
294670 91051
478247 687990
674528 301371
737076 282806
246369 456038
665924 105531
704091 212009
121701 825654
614195 53633
845821 195707
899913 493924
773421 256852
364096 742220
476189 119476
347851 502494
885629 652480
871889 911184
848043 247944
7044 197576
672612 278267
844691 210915
169738 502264
837126 219752
884949 668342
654835 99303
232526 602397
748528 787013
646406 217217
628416 262436
981922 42399
106018 841227
736820 292812
146574 618019
473978 112754
54980 237372
5184 812668
363007 742539
604458 742136
89794 398118
826296 249279
426873 547532
901140 808287
329629 112000
609416 231087
189230 700489
363752 740680
76989 228522
177033 629700
63717 218909
457627 536772
821336 224322
375413 631490
908104 205809
648370 64050
474021 107215
20654 440605
719859 239335
876828 518267
923749 603797
563666 188212
666678 139342
38560 789484
207162 866696
71392 822342
888141 497803
842193 504130
817625 298666
715172 167485
792458 278113
92166 200990
729208 251443
285153 478001
192953 611029
711501 253879
47645 231221
838983 208382
478372 119047
649697 194426
723284 234294
200208 96070
400878 432159
738579 339726
93794 225066
854652 204494
635719 240075
702959 120641
660785 102780
823014 126864
428530 547494
38219 205573
636729 240269
83704 200210
654019 105386
608260 116127
541801 353210
662307 105704
242172 41803
707779 273727
364759 739363
109923 642926
518681 429739
426694 555809
870709 209323
871573 193511
15458 199718
661285 104491
854834 208759
843206 700514
643732 330835
662405 288657
517267 459212
80842 836099
602696 110858
831669 210253
691609 161417
474220 117910
633040 218097
170055 504685
21959 232507
691308 223104
580921 312486
289187 158422
750970 265375
364798 742128
733215 124737
533619 611579
745624 190955
852310 209135
345570 372383
718629 184010
43531 218219
849008 191483
64785 246555
68389 209402
849105 232635
358821 679450
247770 151792
698849 347719
188670 839484
416975 550573
368773 740463
427868 552867
828419 213683
922902 479742
371767 743377
750619 216359
77001 227843
416398 560084
68977 184479
362541 677447
417358 557261
596034 238866
679240 297604
400403 431852
475745 115863
353846 681647
397842 745516
798895 253147
145763 691272
361741 740813
832647 230042
719755 254903
369968 742896
370185 746699
442296 547318
654699 131735
146193 403854
289599 112232
808483 267469
370445 740365
743500 483801
290566 560941
367168 734196
322737 143488
60978 219568
366546 738418
356361 692353
723546 490464
115810 815564
85123 445671
751458 266392
362562 742691
307411 122342
435764 552184
413515 552868
909345 647180
879031 190025
189735 849961
197793 608804
926634 575376
370044 741251
503763 269019
669886 54191
194293 471521
371590 740040
362603 676958
709497 284552
372209 744723
134061 406648
372543 743564
418645 556845
956671 771954
911377 649859
661503 57353
913990 83642
115676 238484
865189 206616
629766 274175
849041 191660
733928 489602
683634 241786
317837 135381
779476 261644
368441 742034
660964 281810
595115 69789
717088 252062
698056 102277
201645 602657
637543 240785
366721 741622
197353 581485
824804 131116
743786 508962
658569 284782
521027 458376
43226 206922
78164 238716
61913 260339
540031 366727
375854 531893
707309 167181
535949 446513
372940 742935
716877 268913
958001 362725
595245 286966
397446 430638
402695 432785
895023 112114
552386 411952
717496 316164
647156 265200
457563 538725
86026 202268
475991 117587
354000 670487
409952 551879
190787 579948
15529 110710
768290 202843
170767 211032
365834 741193
371606 741528
875520 239056
925124 425318
370984 736733
355028 670543
24484 216506
885440 197372
563569 50798
369577 743921
688120 283588
543933 464893
728299 289515
618034 321637
586856 825722
825246 131817
818772 240696
107294 205441
365418 742332
661105 288944
369474 740073
527267 109620
666207 107162
985926 56785
922461 745625
418457 552743
665610 107974
909620 647450
58503 783140
609665 449990
520322 176706
636611 240253
557491 249858
705404 277497
365221 741941
832148 220206
69863 209796
559706 109634
714032 252891
699273 133738
684278 154842
803846 241961
918762 139381
398584 434181
275749 74033
314621 138790
644096 64319
567031 299095
805399 200503
711821 11103
817347 390749
622353 251812
406263 425079
398676 430555
75852 206416
700697 281455
219892 902568
220445 499803
22857 219364
698278 275807
474391 114663
856195 196529
348782 677695
353907 693960
691794 317905
643987 331800
665561 122220
264274 110708
894268 271987
65682 226985
678629 148342
416842 559599
666421 315775
654480 134400
765726 229696
596117 274753
369526 738165
362291 740759
285568 321017
605543 790455
696989 301081
372577 739152
475773 115119
619858 314186
416561 544329
370719 743813
191374 882743
595995 277866
36501 189678
396301 429322
435929 557162
357596 680736
202001 51684
669151 265555
828339 261753
401949 424637
181343 643153
845968 184357
18573 259371
89403 899187
421223 554095
440414 532534
16587 197040
101831 639947
820365 544209
276357 61607
401672 733682
152684 925202
609080 338423
639613 59034
308718 579667
861744 176214
166183 68874
202371 592052
847551 205214
432029 546355
640183 239235
476450 119048
210379 839773
432283 548486
652055 38982
205990 893352
800179 276256
637249 242239
661773 296851
735385 274830
406467 739961
739201 238225
144164 871290
417391 549154
670182 280560
698604 343730
64106 206389
369322 740516
68308 660608
601938 263467
228893 129786
201005 96703
793045 295546
416610 557527
983114 246491
913127 650811
46574 232582
828750 286506
660475 59543
826010 134208
864752 511360
638147 60700
829052 132260
613429 270170
325014 395397
169963 502537
865332 598110
734475 250724
865390 169725
615441 106364
831363 125536
264439 126880
374277 744846
51086 195090
793382 246116
689324 91986
424634 551033
911305 648657
629605 262718
242993 118472
198565 94273
369185 742856
844185 187036
723800 491482
842223 229742
895292 127862
911018 648142
427788 555880
172758 368741
68242 216984
813801 539509
255161 135894
156411 261172
563690 272210
820054 183948
955396 918862
913248 733305
857181 226173
188214 598518
931685 821593
364501 742868
305501 607666
373016 742082
806966 318635
827343 132019
732474 311373
360604 740282
260270 389649
913807 655409
90420 197626
798666 319974
825928 131415
153896 845500
690266 159346
856116 614167
730998 488937
692192 332683
816439 516131
399540 741026
213173 603870
913189 650803
612496 320484
58007 206987
789471 129475
616393 13652
423200 549606
752820 252156
363575 738882
913534 756192
663507 104930
709565 257539
117311 668313
87498 196315
35174 199715
357559 671399
670703 102497
257609 395696
833583 226980
658654 108974
866 256680
429914 542370
341802 143219
60262 206130
228264 523932
123217 708211
681110 85781
658195 332182
36470 224817
358293 676530
635627 239085
672835 142389
848672 188107
762798 244732
101506 204465
55851 666908
364543 158750
275303 111419
584069 286916
66163 239986
671194 296088
396298 427134
363344 740020
366229 740072
401372 434300
833535 243597
367071 740665
189747 221026
913876 654763
68473 815209
655017 283674
395541 439556
42833 166139
373261 742737
570845 337163
185683 591520
909843 575506
426445 531936
368680 742637
204918 593723
645645 358374
270448 123289
334833 437411
455073 531557
789790 257298
174319 619169
220744 598112
517878 457343
742619 246965
362677 741578
723810 60690
352821 690362
721606 133807
373464 743298
828560 132032
716748 81266
68593 234826
606056 603349
204700 899354
183534 167230
357072 691839
615098 468758
40830 193554
670937 268591
365532 743867
37033 246096
693662 121921
357076 121447
720775 497590
705777 56970
80486 894952
640450 271523
254520 30658
866001 145271
946041 105509
808199 213278
885992 215948
129897 656388
366292 739331
421603 551891
61373 255196
717545 276113
360506 738090
654716 321083
401575 430799
368157 737866
109204 391684
103242 192746
453303 537404
644516 276783
279140 414339
775795 300159
672681 298373
594081 246202
924439 652903
660195 101267
832959 231864
448519 534824
41045 234188
432658 549545
489881 642664
224439 436693
81769 855169
404732 423055
823249 132911
217360 122961
634131 237203
676689 291207
296213 147418
421768 553381
969974 581573
365704 735772
314095 146822
377855 746623
367483 740125
153928 17829
147207 458424
401670 432168
707926 331408
413267 229191
473799 113518
369690 737361
202939 609463
737804 942162
522834 444641
394273 734701
847400 223133
509273 460082
64737 207863
414281 548158
370950 737765
610572 78551
411641 565507
890188 115893
797185 252607
856981 193410
396302 429606
707753 276838
742274 293379
926239 144197
659618 278274
901399 690195
688216 106252
393348 431763
477196 114197
788933 277311
826680 255762
86325 864403
425279 548090
716834 296088
273983 416083
913065 710795
367094 737709
718274 208559
126430 645803
368378 738602
253380 194624
486919 389134
749606 247498
719622 270866
911339 648080
665422 310173
364401 738587
710509 488314
295883 425790
74938 774463
633216 259665
984055 83486
122979 609457
367922 740031
911829 653042
658338 127335
403062 427239
692505 101196
413306 550964
663832 224154
810921 250176
858729 214332
437036 533751
422429 544600
897504 666732
35695 207866
725018 287370
699558 243940
892014 201336
105367 704838
918922 623217
864674 201110
783002 202157
77160 240800
362638 739049
92755 229248
499441 457346
60497 189664
132144 653299
365019 740266
663883 294699
376842 741138
660214 293896
730460 951558
362451 738242
449678 536633
852671 204667
991904 325871
605683 272914
134299 689342
751666 217393
850156 231621
91069 255302
789642 63895
856647 220066
865658 909854
629773 331804
100186 240955
217615 151448
911508 649012
373888 739926
635350 164329
725025 118735
669598 225432
281089 950594
637315 239266
805915 208307
856194 300483
908868 181405
913737 655561
363676 742478
629728 269328
910570 651251
431923 557452
763607 309626
220171 864649
911304 649381
750249 649002
301519 164452
667832 98251
396584 433537
851347 894084
812464 234857
722298 398673
571931 268708
696865 120583
654309 71486
667779 215947
430873 553053
670842 117778
368029 738269
368557 739540
800167 254684
391650 424257
646670 291306
640438 243623
815522 223428
371088 737127
871868 197921
360057 685545
894918 177945
367059 737987
363303 676683
659451 41366
872915 127479
212752 100967
85591 720411
19173 283040
376822 742456
421482 554077
253938 430528
371279 740669
259023 934280
753311 245058
702221 282297
371358 741035
321720 528147
365715 739479
798635 643195
755984 251603
715915 258848
795586 275963
681510 291480
209692 610998
658663 427963
629609 316702
210425 607810
99495 786763
725843 895685
360695 741256
221835 441815
811206 231526
360074 681419
351203 676464
736971 255290
415965 727624
809263 556614
663893 312116
651862 293655
220642 506170
365906 741730
657254 288037
475725 116795
63760 221563
928868 759005
810085 230926
676423 292521
403889 303974
731381 252666
302118 141760
366538 739657
630866 287256
861894 203532
153204 119981
545718 351558
697879 289971
538779 702717
469835 377934
389325 431974
726371 297456
656206 288442
658379 219076
677730 233062
371219 743258
440307 536244
814728 647613
432287 556753
168893 584554
61330 855610
301887 105223
275389 149103
356896 689934
31282 240435
257290 448553
126321 879580
621222 319884
873414 637590
109792 199031
118326 412893
692525 151109
322286 413224
520716 447033
248785 449406
856846 193964
369358 737860
410955 557307
503277 452349
656476 70342
664130 83932
363516 741876
308218 123790
907061 660608
608989 218495
370491 738882
425116 545629
363529 740079
669285 334592
56509 207360
802000 268997
368026 740611
704185 313117
352133 680492
156350 689030
417741 566377
657669 100708
605835 308097
207340 199997
681884 281609
861772 870615
435811 531705
410254 720511
832626 223904
6394 435562
840506 205328
742568 698817
116504 660494
201546 92412
886829 654869
670193 106460
831301 131715
553845 731953
844540 205368
366429 737409
829140 134324
924444 84769
674758 313252
36734 200797
880963 103780
827867 132081
699248 114419
915413 651869
712186 240631
568924 294664
720622 191874
200907 606579
416619 553127
866012 179870
25686 460497
260209 132697
738788 138906
698138 92383
830632 124148
669681 308661
195671 385731
634543 85301
183007 396531
229107 911932
75701 793774
523896 440012
680884 920379
641858 312483
347934 698475
651521 147616
66543 251820
632173 233880
405427 428916
368051 738951
595173 259109
197419 606914
666114 111047
828488 131560
74397 301700
653241 33711
251871 496261
957421 948281
376616 742790
144101 848309
432453 551387
132544 35952
121374 640167
365726 739204
877068 910254
909798 644208
42180 156510
129560 806874
88047 252096
384310 853306
149948 401977
51549 207334
702472 281255
813073 233114
740523 270401
669048 109875
781521 274467
171183 188045
69451 219763
842436 208786
196871 90360
673159 282516
334240 38577
883665 64005
212991 590964
673740 333764
695861 355463
757798 266966
636333 239891
138966 859194
147708 114016
805245 224653
187997 602741
201191 600838
363867 681575
870094 179060
716986 319276
52469 237450
643057 83173
368610 737185
736692 70103
39864 228646
677591 251927
103989 628133
482217 402593
417663 551150
134482 90717
366257 741915
347566 167912
633628 239517
162412 70726
218440 175301
541825 471602
306343 382764
632824 236212
45069 200550
368420 740700
610346 305776
872893 189079
181597 587847
855769 183664
84259 460124
413755 548828
66967 193583
547043 424337
398496 424635
753611 252404
209177 601544
620756 72885
977381 608918
64009 842776
680177 297483
123009 59377
370268 737954
367703 739679
711203 244144
810403 221186
366382 742400
636202 237089
46877 265337
434889 554018
321791 465930
357006 160937
419919 562746
363760 742190
161423 844179
631045 96928
422755 546579
883518 640015
856912 285735
855025 666216
196764 90881
430946 557202
828385 255345
362029 743342
376016 739503
727894 230680
170693 597260
301151 119585
360265 111215
63808 281686
909142 649164
367780 739781
101748 246863
56960 202897
367930 743698
368798 739473
208461 212760
366127 740683
619549 893892
597372 202187
205938 183066
253396 436000
375144 743050
608627 191474
729025 264693
627174 277134
719673 258584
440784 532440
374080 739564
867994 243586
861866 195176
887543 201479
405323 421817
300814 181905
109354 835224
909612 653130
338486 500186
785430 224152
183509 643084
170320 501179
313846 121578
23181 226669
367311 740726
447358 531405
83291 283054
641291 271560
55572 180641
363269 742780
349791 171814
661670 569441
708135 192616
419364 556258
893318 681946
74493 226147
535952 452935
368903 743352
370042 742869
368363 739085
492599 411378
655746 228539
872569 204413
802952 227200
819778 263701
872195 203001
369506 375623
498161 228304
221997 167957
334395 144926
829199 137361
431230 554710
696196 356187
74259 490013
54301 235792
362871 739606
372117 737152
364759 738762
475921 118804
609358 224986
813962 241272
203845 604329
364950 739097
659498 90254
620076 11877
120156 146591
652420 56355
735654 245492
820597 503515
259314 147145
640304 97747
628562 380480
371969 745059
826458 224805
91442 441378
428359 554152
639670 246234
604277 277372
685865 54599
403657 430998
646298 282137
685183 290173
911275 646106
426948 557822
866400 253687
365608 741138
645401 214098
796275 228102
604460 108486
64246 176017
368516 743763
75265 224627
435779 157541
431747 549339
636667 323113
608230 342632
218517 588392
371191 744274
636121 239392
730281 506041
684851 291127
749703 238954
276464 150951
282327 418551
845785 225231
661978 20259
305773 140813
613369 270313
656013 104398
367820 741998
805076 251521
48528 802154
634217 179852
727178 505394
413731 560166
39039 218179
662747 136686
72641 212199
677429 268118
44626 18941
877006 197745
476793 118798
368513 742595
158107 874682
908974 647594
225509 77558
841475 194518
368837 738829
853271 199484
607311 205664
553586 437807
199872 93599
654477 321909
635656 237831
475317 118520
34649 817927
370208 738833
369369 740555
912580 649522
515489 304664
694171 207231
873365 889445
765474 239315
913262 653891
707836 78078
371123 744641
675286 576682
660840 109201
866268 555573
716660 294824
853712 184491
828192 125828
49009 204026
845366 208376
355703 690325
692170 176575
171586 889775
635683 240008
366465 744413
530994 398461
713725 258431
118601 109862
101000 638626
210557 75597
735954 278024
288036 513235
371143 742385
368074 745628
850491 219622
657670 103932
426028 543822
826106 131312
124629 2491
757881 293223
627920 285473
638557 241952
825201 129654
685729 38615
367454 738197
645951 67425
369976 742490
275780 509787
656318 299411
666260 279965
555081 480220
676636 85920
919181 706869
175219 13536
811185 208122
677362 293287
804249 258015
613165 275016
373162 736839
671465 221853
910913 650271
676734 274692
828514 135536
774380 208918
658663 102718
260862 172338
693548 261741
169115 503314
404941 726578
872100 157422
712257 254289
661011 97970
218062 586819
767940 315189
366052 743225
369956 739013
607521 640091
404632 432707
81144 224849
663602 313629
145994 117595
722488 50993
862516 444342
472631 112469
362625 739973
585224 400845
723487 289359
366921 739045
911948 660366
664931 291380
781798 224728
374519 740587
145510 667577
87719 202416
929331 549477
245765 475572
684275 90454
299858 442994
709956 247018
442611 561013
38096 227044
745908 277436
670946 57960
67492 213456
397779 425997
742473 483866
634663 252622
671513 108005
399654 430764
911453 646781
800883 276204
660365 86242
364301 740624
810324 245000
151211 119990
400372 428688
119837 116329
626994 282452
67843 226685
96274 623852
52834 222300
81792 656928
913379 651887
279596 118097
148451 367020
367370 742248
367240 744518
913765 648555
109270 623307
743625 323355
953019 684521
654817 335775
369273 736761
96547 93305
697240 80806
694702 285691
997682 204522
629703 317353
356988 680177
417880 549139
826440 228481
50388 236784
837870 210839
775509 292250
52279 207779
305228 123426
876682 207249
657948 291537
114366 632993
637917 242850
204293 134217
427562 548569
698679 300683
651332 289509
367003 743186
113845 613269
713449 107299
62875 194195
319075 138264
367206 741523
358113 695891
847530 146871
769917 263416
425520 557456
854589 203820
401857 423036
130116 882067
216987 902563
34416 193381
845963 206000
108628 820191
714735 192294
278191 106307
31394 228194
661483 289929
523811 446677
370170 741718
200156 620525
371311 738394
757977 308145
528063 447303
924866 882771
440256 555579
197572 571263
590291 245903
522795 444806
420545 550844
428643 552261
633379 238539
56215 820963
371206 742614
793960 340061
738728 237903
596935 275104
89420 208037
370727 741941
660802 535277
807374 248625
367458 740722
476631 113973
59529 205798
813217 639708
371578 742684
962209 603218
650345 116304
404638 739559
398083 429537
928997 427679
371187 110871
189950 129076
366761 739587
660735 103191
657360 282215
365383 743280
99685 228926
766442 62156
353461 689898
365291 740208
301782 134453
364093 741895
662037 209345
661142 190077
364901 739525
436648 523990
438444 534964
741697 25779
801698 624131
909516 653711
678733 303406
430877 552903
609660 279352
634701 41090
368108 743278
595466 108530
423438 552525
969496 853936
47678 209428
667833 107460
188915 79188
118267 52004
365201 738879
720058 110798
323272 159709
243767 163143
782906 273995
168720 502152
879545 197620
170700 502779
820343 118742
651790 323251
367653 742015
222719 39092
265833 493618
51278 215872
543012 328919
364360 736493
681770 103474
366060 744114
636445 35163
810889 209049
913013 300237
309266 224676
363127 741798
842230 213529
740772 238671
898857 621395
170813 504862
632850 238657
364157 740031
696303 239888
596175 255685
780609 236850
427605 547677
654889 127606
864501 608114
851187 936360
679221 305280
427752 553406
889645 711612
654896 90852
429124 553773
646067 313097
14137 685295
670130 106675
696676 253685
817095 214875
905406 663407
403984 729872
823752 135060
61359 214102
195540 588259
366641 740788
327816 127374
75930 221282
660019 289796
666441 326926
695467 260269
708569 139719
396217 708641
547838 420858
79371 209214
367583 739051
365816 740095
616050 34950
429792 550944
459853 136155
431528 556709
715391 249815
724686 480262
816978 254260
579311 378792
724951 248709
372768 739694
741252 281493
255809 256778
668657 209837
372152 741803
412659 560941
659604 290397
639708 266610
8760 695233
609401 224715
122631 879960
867686 220930
748863 224792
233928 273242
688545 274342
63323 186845
890900 713224
7903 820681
370758 738759
147008 809946
886001 198463
369161 739633
48507 204789
54194 213505
818183 247166
113246 174525
37970 220976
310336 416910
69978 400625
601622 277995
368711 744076
477622 447700
923752 114648
94423 429559
371877 743391
669266 115540
111556 652456
914307 651930
677754 295488
474368 115943
637887 239765
716054 196972
80862 232748
220709 100946
197728 581792
683566 282374
187060 630570
536123 453379
933762 602965
692863 508098
871852 203565
329915 188664
354555 695656
307743 438342
635885 239151
728233 245344
835106 227328
207164 66620
375245 744947
662663 105444
871193 187187
539561 243008
370361 740398
824456 215758
680172 246795
669891 65274
75722 125319
670707 293395
427274 557307
425454 557624
366491 741370
913372 647194
139704 406657
363658 735833
137382 667772
156900 122156
365409 743240
150352 128549
651876 278833
369188 739626
656755 382532
144343 839522
72751 195311
78602 221288
47379 849338
858635 199979
249260 161371
931781 112109
871458 210386
669373 76295
640517 244928
163582 96209
152828 828653
696154 261076
902242 741974
358707 691397
674951 64864
825066 134139
210187 558847
728982 250028
771333 247132
668861 257611
73287 210562
680426 109499
111394 797233
64758 231662
889545 578846
334407 149107
838864 195893
650388 115107
79349 926360
215825 604128
65406 192654
367844 738640
56822 838332
115151 686094
575511 309633
947183 58386
477001 116266
644566 320213
724111 126076
891629 639075
372669 744849
63957 203982
371151 745476
41098 829842
418212 560370
807287 295299
622322 302003
858479 206243
365915 745259
369785 740919
848409 214574
400530 728722
911542 648773
660232 102842
896081 655204
346864 679927
653469 107257
727051 493652
118523 684333
834553 417712
112591 212459
65140 230700
401741 426255
630296 348994
669082 134767
723925 248635
113361 784451
834867 241422
75972 208931
685836 278700
232214 284611
634635 279599
969194 894186
830189 237932
702080 306344
370386 743869
404002 428495
912536 652174
251449 453338
891124 648577
438303 549305
477127 116296
423915 117636
508141 249711
572595 342854
184252 29462
662925 123667
547892 319777
450514 538380
726736 249278
434710 548414
698817 68071
669803 111216
365651 738418
94349 228476
7036 210272
418272 551849
411496 549401
636422 296587
531224 431992
392318 427376
166606 746443
421465 553858
726338 269483
670340 275905
704830 313654
121856 107579
776335 313750
641510 66211
621131 239483
740639 89462
225921 453975
367832 738556
134496 435041
398293 432293
913205 652716
703230 248313
763300 732063
38022 234534
43410 182743
148500 154177
269099 464125
585740 253832
870822 875035
139625 195575
725220 307350
603054 235966
191619 611560
371932 739565
674212 89344
688428 231500
994682 751403
636121 239246
408780 435792
368148 746133
473245 115039
688747 236691
559891 261667
685016 246885
496817 447520
658114 84279
600268 376049
759057 815782
405880 552993
695348 2397
637108 240451
584042 315515
745668 315527
909759 644170
689294 281853
632739 305309
680883 81492
421646 556959
695381 249680
814219 242443
826559 220653
434928 549555
144329 832317
664998 109225
371944 741384
541510 216313
678694 257063
67379 180281
77134 212178
861528 657672
591842 906098
399940 427096
438422 532849
666812 109611
371442 742342
313770 124684
847105 185970
847192 195067
70414 231639
293513 118483
187576 162375
931034 125013
528122 442354
134438 271609
719433 117595
626831 249666
381340 364118
620827 730065
88607 191420
789253 199555
655382 287516
720810 427997
420604 553352
655625 104712
417814 969095
829201 237170
366347 740229
795097 217347
231842 571578
565954 260036
375344 740825
76974 408432
85990 783799
711605 255067
705042 282054
114200 423473
761208 225333
528766 462554
358928 501086
672882 298870
720287 370920
475183 114319
91642 204748
616917 249502
502729 522978
711210 297034
77607 223820
911619 648831
441133 536045
63100 237691
364697 736614
728512 314159
716645 122404
442387 552308
872156 197428
368919 743210
526208 455926
910215 100877
367775 737838
858700 890591
113527 635464
371550 739351
441199 537846
422669 470670
451360 531176
362489 677311
595032 246561
137025 861492
702022 139865
28986 218775
366289 738708
369473 738921
340448 679811
750356 271689
926956 644964
88193 167262
365582 738475
300306 301308
628902 351746
728138 489250
726194 512102
558779 435498
421473 554978
473910 117857
362755 739451
692080 244803
427080 537242
706463 303220
428891 549882
639434 242838
220771 155735
424721 556389
81712 214876
717511 212661
538724 247921
638702 244658
440912 532716
397520 723785
61564 212458
68393 237273
824482 710043
740952 4827
612100 67425
371416 742033
186425 601812
368757 733951
815055 248007
369359 742921
61651 193833
753327 258552
860412 214693
827361 245551
201703 587108
722666 213928
418510 551924
632461 123589
83858 246317
634133 238487
439304 532675
602457 230256
474908 112258
780304 191412
871420 202000
581169 389666
600801 271949
256399 455482
855369 180665
724740 274812
162313 94268
53167 813771
905811 991020
638803 303775
396803 428165
659517 27512
642833 97790
675280 304864
663933 297542
674690 314960
735955 269657
528546 329704
684743 270542
417723 561760
839248 194486
850316 239907
887048 657939
850960 224142
537655 440821
826212 611683
173076 172638
140916 84390
812512 604549
674788 132651
452172 533128
827837 130933
595761 54674
367380 739867
402554 428725
265137 479198
686815 93825
773924 300193
135497 24818
770514 238363
198986 94871
139213 987872
688287 215118
919860 924525
436065 550377
733644 310884
205597 99082
884899 145711
193900 85819
825561 231041
41397 181694
44917 833620
523004 727633
292035 493716
177226 612957
455749 535201
310130 518138
676644 257199
639196 442977
368601 738723
130517 431336
822533 685656
427247 551436
660467 102501
692187 104927
368004 741682
369975 740846
745085 223999
657592 138156
755733 314960
474711 115211
861548 559660
520692 473538
617318 198125
174752 903217
32994 209641
747752 202869
320247 169013
204215 90797
830476 218571
25028 787767
666579 296117
997382 372733
363963 741429
207177 98909
444926 536520
675951 329419
424769 560429
356047 678707
397143 426594
475010 115091
706060 744319
332291 6617
445011 534020
853257 839540
441324 534754
345501 668846
320118 149160
422722 555026
191775 112211
789267 270982
650450 111568
71357 234086
144554 180975
826046 131322
561350 414711
437975 555275
663404 105524
654175 252238
678627 359724
277066 150975
938885 682742
742461 269229
749263 309251
654382 113385
894366 635262
142823 896419
359516 685770
155476 846917
855435 186817
912704 651056
810548 238394
913593 648624
370860 740566
419083 552443
693547 87753
501164 329324
541813 444835
398611 757187
825519 56722
799778 579441
674334 297103
722011 287206
123925 150200
625952 281780
679651 235780
254856 457101
671349 336118
824126 746362
368502 738781
430000 557775
654527 280527
662635 102156
718438 146241
745321 255502
171208 504153
636530 778922
10002 826471
369408 742129
926220 135908
250085 141748
88002 910407
130040 854688
368836 738139
725677 319694
112188 658087
641498 62174
203173 162432
790049 230603
700180 296033
850442 551785
78807 212532
677480 308572
176079 826197
366004 742078
710843 257515
742096 201819
680043 294796
822827 249509
859206 635856
846133 980019
823336 132244
171150 246360
29669 222993
692077 620448
397440 430389
449598 526284
154178 195696
703156 144025
368151 740619
911689 650980
49405 234691
536280 323615
835744 523562
910227 645379
633957 236590
370513 742084
678980 294611
744692 253669
708088 58444
638614 241189
287413 326249
914659 648647
363102 738779
364516 740393
621189 57291
869968 201308
394973 428314
73890 188947
252681 444028
443482 535428
398172 424487
642790 221809
728574 317839
681739 303948
622265 86516
545107 398833
331623 146577
659460 164628
150025 50120
666153 25415
835929 34804
598986 282468
856718 200525
365483 739271
663989 76621
901932 71393
559381 338395
711731 266352
114894 445892
686249 200384
910032 648252
222738 594325
549388 392378
366325 737349
533323 400658
651977 586550
411821 555678
911985 648251
427840 883912
364046 740209
292730 122537
697688 287727
407538 561185
371522 738534
189281 606717
678370 244448
633480 84511
379337 883120
402333 429760
423810 557329
84663 201555
680341 291627
570881 260101
706570 119824
634577 86996
398477 714438
429013 556348
362960 741018
425369 553460
862614 207322
853306 261323
369006 739408
618106 580724
820002 236504
74458 215847
741292 110671
10974 203389
395426 433017
140242 622759
924537 123761
371398 743343
232686 946923
67324 278114
775038 247834
370967 744894
629285 293208
314771 159420
188705 112304
58944 162308
799820 448871
812094 221401
372134 742930
153623 95191
195323 91801
920866 653073
696458 307690
734062 240479
654220 273536
937402 871671
360642 740979
180095 593472
653975 273903
690056 303276
671033 126747
872187 196200
370971 744839
663923 99380
854013 238597
167093 157739
895230 181371
377099 745682
366390 742436
374831 743286
369425 742234
253009 647459
487773 451900
96622 630122
449195 532375
661113 206563
36075 241389
831257 226612
40482 177893
913036 650412
603772 309497
170601 503862
52601 216956
234123 607015
828254 130140
697681 268938
802060 871887
699252 340452
669057 257815
857124 198756
815780 707772
86967 799281
594419 305801
666369 252737
396810 422545
772796 187665
64870 219563
508141 446886
303940 147670
662292 297409
537765 255051
311814 106270
607579 274773
664919 309263
742783 961227
946874 107768
663959 89647
74710 565843
61925 228723
664088 291288
50435 805840
14138 233993
655116 285247
635688 236156
696405 210176
366977 742212
192519 614206
366462 737849
933799 665804
189242 60787
471140 428096
432184 551144
634213 110909
117589 242070
682211 206514
760963 390235
646311 165805
53582 238263
371414 742814
910592 647472
177506 164925
913344 649354
111213 657720
847030 223723
750462 225807
246879 222842
46886 205858
422441 551592
844112 202128
49437 728694
727703 291603
90430 271045
655082 83740
108184 822708
651103 278985
810442 240593
858064 900685
364742 738766
26828 552264
368963 743986
67986 223861
613917 344011
494541 436091
363646 743631
644178 113751
167780 500023
165013 179757
679755 250516
334591 350253
599182 309692
238612 136960
745943 269932
366254 742352
854269 181454
41118 212029
914889 650552
63409 214866
57180 225205
699903 87085
854515 198692
705113 292608
428646 549929
640356 831098
642315 277397
197407 595024
625621 287431
190287 85142
208886 99394
668755 43887
212741 602428
20742 214237
400036 428022
867055 195113
369543 742166
828912 128003
366204 743833
107593 213435
368154 746992
569048 343224
300800 425502
835951 225085
857071 215853
202189 91097
368519 738740
366571 741233
63914 247092
709816 87427
723344 231519
778697 281889
690746 292692
162400 647093
353894 690317
612059 272564
167231 708114
911895 649886
172638 852294
368834 736513
401373 428931
186866 612903
212303 49180
645531 254249
209824 111294
418024 555253
391638 431603
241104 499792
197385 587384
130910 694118
375705 742512
634716 240174
717497 286030
145873 430615
912722 649159
370114 744077
273957 165148
857112 203267
454402 533244
372154 743434
692785 115037
680338 58512
800877 212620
643121 309521
829846 222317
365313 734619
372883 744600
950024 64435
666968 322743
495397 458340
626342 150705
222920 477767
912837 650618
423346 554048
145356 626161
677727 316204
852200 655954
633635 237622
839898 263643
366619 741742
403834 428247
89816 196114
40379 253615
312134 145484
47275 254401
577201 149876
286023 150132
441322 531142
666908 119047
133644 103766
690789 298270
369136 740621
727100 208456
366449 737751
664912 292057
369848 738940
754560 93515
865519 213825
364692 737875
478452 119277
906652 336711
46750 232523
926153 845952
717524 312025
809587 234088
638113 110343
760048 300517
910252 646619
836624 213589
645511 144624
146731 182473
907930 919304
89315 207074
719025 282082
637421 238167
636113 89215
950260 722389
190457 254405
366579 737984
577530 438106
509343 456718
643449 342921
570156 314926
816171 265002
669052 254147
892726 597778
722261 488253
79547 228293
199812 589227
43088 820800
665059 289753
288023 60649
659366 99105
39463 255278
909928 646773
414640 553012
127138 638849
369842 741159
473893 421872
373596 744381
169746 502397
213770 615712
370332 742019
861587 216053
792533 226309
596918 118318
608353 293754
325032 108357
737678 247107
639577 113228
806995 231264
365151 739601
441930 533748
368240 744572
828607 262441
361027 737055
425513 546869
750950 290537
309275 126596
402142 430749
35693 243576
822004 136126
729089 247074
363886 739592
608529 136940
373608 741386
910860 849382
857722 193910
843184 211581
681816 40833
683921 322462
736438 493529
169283 500938
188831 573056
441493 547185
369932 739808
400982 429113
817584 511748
370108 741503
864139 228622
956553 32905
88353 226267
171214 120043
291726 274030
373602 734600
280236 111043
362950 737302
912748 263963
914786 652366
671106 201641
197217 424547
696520 118700
830121 125799
775234 331035
367831 739033
370030 741430
12729 215818
405595 426111
375783 739233
396911 426565
666423 337086
214691 999731
396473 430362
117401 856805
422615 561678
651163 148766
99485 652530
93979 173437
794613 265425
367115 742563
179126 84636
346014 265512
675038 264408
306304 139106
427340 555443
218099 432589
169553 501095
731790 272222
446468 535014
163323 201901
291304 126208
652171 18756
199119 89847
374968 740196
26840 37080
672886 322587
304738 191485
344437 201193
924119 104494
433555 555155
420883 553203
693851 264107
399364 712764
313070 196003
226642 373655
739480 582953
416699 552960
302006 509841
367073 737366
701641 114076
689392 738796
359033 670866
636117 238374
670145 329559
658359 101433
145289 873463
827003 128247
331621 535049
468062 532723
658200 285612
599991 252907
227054 239441
844400 478220
451809 533514
744608 271682
506615 447939
740819 288283
977456 745322
766132 275903
554208 305051
400166 421173
403486 429095
519332 437357
204287 859564
169191 503024
196927 586454
430163 554176
848928 198203
376604 741366
205750 611408
366567 744264
619372 584572
358854 743799
24287 246756
846452 686725
826872 131882
911483 648451
474994 115284
673910 194776
123628 859688
32900 192228
367064 742482
61222 231997
854120 129964
822829 202335
13259 184821
441640 531938
772290 234977
825637 129700
828874 128643
369903 740674
366898 740893
710303 232159
463811 591370
408480 551262
815756 234938
660047 223126
333143 155976
48298 209359
425207 552690
909924 646185
12639 204988
777319 262689
368584 735974
363180 739085
692871 180702
154557 136702
364150 739638
678209 243044
429838 545718
638566 85423
845495 224166
363947 677806
827753 127927
755637 217974
287149 127612
68349 215479
370307 741691
807899 234533
366511 739688
613617 324541
633856 238152
681914 166042
167939 503034
555241 444090
715883 295994
687056 118670
269120 398460
52825 207046
362829 740814
415047 548737
72349 650003
680705 259724
427812 550218
755305 238067
662798 104905
845876 205504
282298 924733
900198 587173
828967 128601
168872 502000
909302 647832
802908 353979
912663 651675
934310 643767
680613 408293
787291 305298
632826 96212
154755 366778
372422 742271
913628 646607
663309 315890
447162 782124
372746 740980
719407 109349
361120 737485
431407 114690
336127 134402
301544 825747
369740 742607
212619 106141
624664 323366
671078 82928
699318 162348
326817 171426
365091 740164
403057 429382
679067 126448
879718 184710
252219 503474
48928 224283
910706 646207
643237 280936
210674 93411
853756 914041
473674 114866
266348 433843
475556 117336
736844 185863
632153 191037
212373 615569
405749 420662
663308 220047
189716 46365
36239 242163
662768 121963
202249 625179
405996 198492
734722 256567
431161 541410
66057 236913
707411 282915
429406 553986
305471 169671
373801 742009
367165 742272
881874 212093
673907 284483
62112 217054
473677 113473
86969 258401
643284 283429
450285 532082
802956 235241
365012 741958
712731 306553
98712 702300
859367 194205
661363 338737
367722 739094
719974 79344
367395 737385
739998 272429
368630 741636
65109 202431
397621 397600
264087 354056
824725 126092
197778 99415
623592 260188
204211 58647
364071 736452
364411 742891
363741 742866
654524 131909
316119 950514
358431 743771
403734 439134
373353 742398
751694 310534
475580 117319
677361 263862
364774 738151
643602 69710
49027 182548
662417 97293
656744 284975
430256 542376
201060 98896
680558 252237
735599 307578
312604 112360
737900 304375
65470 222122
724041 294284
545327 370566
341549 950726
200101 94537
768495 212462
700237 238185
596389 957784
913590 652992
685471 268458
34094 201477
473036 112926
708633 283712
125164 462766
373489 741254
421134 559475
367540 739953
864227 187867
621769 49508
663166 214333
939769 740018
368396 739958
422782 780243
375094 739038
668437 89401
927707 892550
169629 505755
373775 742252
552386 456471
369729 743761
694169 266116
577711 224828
102839 862837
499831 399555
329419 511833
423948 553993
401066 429590
640654 242804
362518 740221
826863 130202
58073 218218
597983 314150
362568 740551
25246 187236
371707 742571
83806 237457
53981 244298
910886 644878
206488 589972
191733 850738
418137 550796
391902 741528
863734 607427
639586 220297
364999 742666
295741 104731
857956 193889
366095 743290
811264 239770
668237 186346
913151 651194
168946 503936
67623 214473
662028 294871
437949 543078
453292 533960
756826 236917
242157 428624
169980 501601
864623 179175
473026 119926
458511 533013
679154 133514
662627 109441
306863 515255
865846 680915
227918 61906
825282 136097
638242 242316
682554 118521
653081 156949
373669 738523
722994 562379
625637 223225
913250 840566
400801 428787
887614 623527
370702 739133
870841 202952
920734 709755
839464 520403
438897 531155
323651 141935
398006 437187
425280 552902
634273 236924
814995 222750
366801 741057
909239 647421
110460 659468
730965 284705
853288 583300
60842 223514
896420 525178
672801 288983
671801 219770
711591 230066
369773 739419
629904 337656
417910 555385
432347 549806
85454 246286
968148 72086
911313 650595
886658 220291
626955 331037
670639 277901
911720 648382
430926 550446
652895 104454
366871 746126
116069 778436
206853 504417
80829 190142
54903 251252
849824 211543
373167 737383
670294 118483
677406 282602
676709 106516
535077 112208
458079 532143
786960 293799
672080 252667
639349 282970
613059 262113
861440 211687
982981 700085
57839 800490
515019 466477
893180 706061
433184 551818
704254 267190
183837 106669
446412 533658
909586 189639
489478 206708
82561 190733
789237 233929
300699 131558
865441 781755
714590 286967
293153 149085
211316 93105
625422 35771
701128 275370
911378 653105
439153 548791
183877 581469
488482 292691
361930 741758
716331 153149
828869 181496
750975 311845
634915 227864
424721 556724
477662 455111
284079 519613
867367 205242
446956 537077
658912 104080
54802 259499
717679 253492
947103 669097
441954 536826
634734 244198
867138 206965
836955 436687
835187 507915
754704 129132
92348 434606
902255 672001
131153 851133
682863 179556
912283 650419
675064 104823
405813 728923
365367 741722
193423 605525
824649 666970
435244 532681
428478 552839
598102 344094
726191 499140
366648 739686
678661 224283
215080 99893
803387 462257
638783 229925
439285 533142
601549 44850
704828 299422
875797 185184
698453 78233
363633 737872
765618 220704
183022 599084
579724 321702
859665 185295
64466 268406
532925 174040
197737 722874
661195 23922
590599 349662
367824 741679
651533 243015
868977 196471
201913 333529
450039 536147
913666 649714
370044 738618
58451 176433
689881 250247
371863 877944
421899 555140
914683 635644
687318 239723
668682 285227
331301 151752
434638 549619
686944 82957
747084 279089
674997 230475
366804 736890
636105 238062
72763 210799
367494 741536
788897 284704
402711 728883
46296 832771
634404 236879
195311 94157
309406 624371
365259 741574
695043 249763
828617 904771
29663 182457
358731 685670
639835 302301
438628 550093
691654 123525
5007 4430
92435 237931
601536 337006
422668 548831
167044 500335
569313 336042
139984 644983
851502 208053
472855 854513
831450 254496
366206 736839
668552 210236
671430 114390
360275 738514
834532 208845
741672 270489
764821 203732
913005 725285
415237 564410
350523 651989
734167 285936
394350 755509
738248 223324
601304 354387
65651 245849
553843 316828
635540 237143
814109 255191
434679 547677
102028 432071
101924 819402
670293 41187
200029 94896
360226 275488
373055 741394
638883 238474
974562 755510
670944 299594
434951 545962
665390 97555
912497 648546
393247 758602
912674 653033
213394 609929
930996 88421
145180 144706
912344 652049
667256 298175
365440 742533
160208 169458
97908 599092
158717 115012
200559 581904
968894 717232
754577 622314
764002 263247
651597 83814
227818 449718
304037 490233
404125 443377
825739 130892
697721 100081
738424 266338
683272 43555
372476 739114
761460 260199
652285 71046
831082 620821
913855 585995
888290 206072
176001 124099
366871 739975
816578 222602
911366 650555
671552 303175
468015 592427
762223 274408
352933 573924
241610 450730
840989 226124
45252 194881
430527 554421
557960 439291
57071 230160
832034 213713
666202 283532
623137 99059
402016 435395
660559 329914
626055 133550
825731 214397
201511 91286
436093 544676
585925 331326
225092 610790
92934 220634
664573 269404
860939 215229
872090 177250
741870 243565
683331 34213
210825 425871
267572 146749
368551 742962
29907 192863
866839 194794
166629 110538
430818 545526
426345 546611
668462 104768
865873 131293
662318 109064
58730 231370
585918 266110
371946 743029
632804 235140
708148 10849
571680 230445
245215 811900
741690 322478
642803 267458
861153 583521
353524 679399
194005 130710
396822 429664
911050 645353
646752 289437
362944 742398
416164 756743
414807 421194
363922 740276
61000 208373
707554 992548
388021 376839
674722 135551
627842 210218
681418 125992
152073 592049
290485 150811
960330 674962
903636 670619
711089 110045
872367 239058
446479 545772
798090 197663
135164 402557
290978 133157
935472 655547
733335 262647
857603 248307
711768 746236
366137 739473
441573 545928
371521 738398
371086 739387
70723 239642
865148 166824
162100 103006
436649 538470
367201 738954
630739 83596
640259 272221
677330 240256
363324 739197
170722 433910
80192 225937
366867 682792
416904 559882
568283 328788
368392 743398
325816 158134
953941 90696
396174 429465
432910 381330
404093 429856
110698 135274
232540 23806
632015 234614
599291 315147
658301 259960
673384 280581
729515 264676
291429 409306
178651 874094
675002 405384
220314 454656
403801 733909
621870 91993
694626 333329
635241 91090
213709 114141
367049 742252
714329 84897
212312 600327
831334 125359
85733 217205
824459 243377
172295 819152
368700 740030
840227 226033
155525 48254
694216 199652
772347 483219
733928 233683
853860 219100
61362 195456
369737 738993
26263 208362
51866 224840
870009 199052
366114 741320
373108 740922
478310 119694
910381 648352
663281 287044
796911 153591
261614 661793
275503 148048
45783 240649
162547 414982
371696 736298
361888 744775
472494 116279
711505 105515
747323 246393
839102 244385
577652 79584
768861 265831
661209 277785
690006 243918
365820 737844
734264 484367
11108 675101
159962 118526
211639 93669
96200 134041
444846 533271
99745 227837
710404 253590
403856 793660
696014 125920
558000 286236
830703 953346
662960 286023
369094 742989
729937 253679
783486 357970
795602 218148
203102 610253
910354 650294
295195 180083
372358 743826
367111 740688
351894 681849
176673 413990
362846 740491
437553 554143
786005 648125
746500 492344
98280 809027
945234 638384
314097 205099
298341 74113
200149 586978
62607 61902
644991 139912
717704 189896
837155 219026
37076 830846
169215 502352
362155 733380
197847 90839
732249 496745
730703 494897
100732 445129
164924 854356
366568 741205
604838 314644
364152 741688
216174 97480
595453 274759
512839 430345
818820 241529
218453 579861
962072 74694
909442 646453
477065 119517
642725 276933
98532 80181
440359 554006
402898 419161
675094 295548
69653 253685
210224 586585
171227 503026
596607 287417
368251 739572
362513 739426
395780 431194
415554 547187
461905 919654
782647 282024
363456 740889
805801 242138
360684 742281
286385 180192
338842 369962
362640 739970
283760 137441
727971 484968
133351 161937
70654 226256
162632 611068
181158 593047
362976 744516
68394 193585
679158 306023
631628 318158
826549 954127
199680 159616
599540 936245
415065 551571
424621 555437
857565 547328
364505 740216
106429 684162
616001 852469
943069 704134
737700 309397
695855 247424
921444 664103
740909 282698
719308 703801
199515 92391
660070 96731
946700 626610
625497 279130
429231 544541
476460 117245
628478 136337
861494 185713
817784 232855
870129 216730
913443 650388
605641 26126
613806 361111
642185 211862
835036 236198
507933 465144
177755 39806
742623 503643
827970 131124
142811 38632
430067 545740
425594 548987
426379 557372
977047 866730
785811 759179
666084 101503
901997 601967
843596 235889
257733 159937
128579 138667
363762 740242
257974 146485
74822 855685
417475 724128
795716 199909
305289 116853
370411 742803
51945 974711
614600 299630
292184 620958
599497 288460
740686 274516
358668 677256
663274 120889
840665 213010
179782 443359
799194 241969
724420 92918
167024 501152
867108 864303
7094 241327
369225 741202
334258 149664
424206 567242
369841 737980
814267 239107
433130 543286
541891 278741
534805 249063
646012 254365
659155 284308
911551 647888
215329 591415
634497 235854
429265 548108
124965 110625
156246 609752
362702 742210
868977 593170
364998 740255
201367 165577
801081 165881
365712 741842
748465 254126
366740 741846
599007 308865
633802 233986
362316 737389
809178 216257
851005 566616
967040 246985
698268 223111
71865 205083
650294 118109
762875 76849
300181 165558
637173 88637
747792 867092
888701 141654
357709 669098
159667 523007
138504 886317
824092 131843
87262 177891
661450 267653
655966 291655
675191 231835
739415 283118
664880 225049
431427 547856
39184 188857
435115 551437
374141 737665
614506 238353
805789 197132
367414 741274
571370 304343
960097 71319
197525 93550
452942 565148
367903 745740
638469 224136
626930 275911
829516 241903
640799 39864
440433 532983
90263 230270
42767 281515
707127 254968
372003 737097
813444 208722
572227 607798
845744 612566
956793 82276
639820 112647
402065 426414
869874 505915
644693 96156
746767 273864
624104 314500
562000 480242
668207 101980
409941 730357
434749 550877
656834 85400
85250 860474
371745 746969
197423 83854
662010 102190
769591 284026
822168 236766
212333 454279
707320 299020
206159 95213
910829 648968
978266 459770
690565 267436
696408 246245
693143 204729
654471 132256
812119 253834
438200 545801
368158 741912
364531 743288
695189 286782
953356 393633
593177 301942
302674 561854
413137 558809
204715 107546
668120 315479
405324 425891
517616 441180
195572 585837
36638 213869
398154 433184
674801 49958
944880 863414
406164 737261
669461 295000
303791 142727
359200 739605
396929 432391
363066 739103
289698 161446
873405 194836
239036 398160
642457 242363
207667 615633
185642 190016
621895 259988
437812 532348
668020 142002
700305 272290
764966 336440
220457 598940
895806 864023
46629 210979
912868 649356
233550 240804
270816 385524
756571 61118
396827 424586
421489 542112
638573 104915
636094 237647
637209 287336
366962 740472
856308 201777
23708 174535
56529 221143
436226 532660
364294 737758
203487 96573
868742 193147
427668 547023
217187 47216
669306 137031
728583 294204
848514 200651
824818 224448
628733 244491
675520 960323
296267 420541
637542 240573
116934 795444
203252 121374
405997 425200
631257 235467
712862 245172
675429 210927
713453 107315
551405 327586
364450 740900
870323 189584
691869 90159
884382 215224
260423 167670
57993 222746
365946 741127
361690 741014
75063 248250
852826 918212
692975 232846
217813 161805
135637 828506
68622 699321
911495 650803
689966 303298
652927 110438
54629 241299
662513 245733
44699 824468
306023 344964
855233 220268
105459 220972
370491 744933
49513 225116
84482 700570
713105 191368
427632 549971
635963 243711
366122 736600
383025 271140
825431 132598
167464 504150
199966 59513
645392 301800
720405 216186
351623 687403
256156 147348
213091 357193
693082 275160
319062 134064
282156 131759
703882 252651
820318 242485
694356 104965
655620 128009
136781 794146
690320 73281
369970 741161
819180 214663
814955 242889
133809 88307
5933 237083
729263 500235
364662 741598
196894 85920
725720 60081
369089 738105
672810 253044
363285 684406
675318 266350
911261 646149
309255 453648
940331 72013
102896 272542
366359 738846
824266 133098
837668 218163
425759 550764
139770 235065
673002 141230
745513 816315
370540 742638
370841 743080
688003 280421
146994 845036
53598 725955
880673 692389
93507 644335
427543 547011
233892 490985
678924 284019
127432 42963
50462 201167
156429 116317
316008 143194
166684 640340
816359 233300
55879 817900
596082 294614
369775 738432
417409 558687
331071 507567
370272 737745
41705 284261
367824 740572
20084 218424
536246 521856
829355 228105
696057 702889
429614 553231
551542 333458
594780 219485
399963 434482
963259 654799
365546 743788
634025 240285
687557 203858
416218 285379
367250 737851
308949 393302
662036 324513
647828 298420
920118 98259
738341 505363
971178 846863
28203 167350
54138 808846
232047 584976
934660 294542
639043 227119
371380 739773
365001 743779
77598 658396
364452 743267
641490 306172
661027 333139
721004 233035
478254 119897
320657 402093
322716 244841
289370 716509
472655 108065
933103 802273
738749 245816
7600 218009
447634 770426
276544 625589
189539 65810
790813 237873
629243 133085
366630 739392
375726 740730
422243 556776
733935 131890
826789 273195
111417 924516
436502 553678
177908 72606
64265 670870
692380 262760
847622 218862
168340 501604
810681 271850
425211 553411
374396 740385
424215 555776
418586 544495
367710 736854
670351 280526
414303 545155
530982 440435
118057 233831
433532 550912
940214 650781
407149 429681
367503 743029
167341 501619
506877 901691
706769 308651
365262 740771
345615 437850
210495 589279
883807 273869
625152 241320
794828 298267
444523 531725
769574 566582
395427 425597
763665 293010
632600 237386
218960 150234
368392 738475
365633 737326
400218 702853
473767 116077
364705 741669
369835 740322
550298 483563
368750 737272
729320 485129
167868 178521
365493 741343
20622 210881
79921 648428
697542 252712
692672 214324
726900 233544
422656 558207
371978 744344
997895 744849
106478 694845
756286 278821
429219 552286
79068 224512
447992 532556
432533 544839
394020 434942
489237 710416
637725 241019
128792 676524
40044 195447
643306 120702
60376 171809
852889 947793
58440 191559
852450 193734
47645 188444
848976 197249
620371 70368
441645 535505
661307 229461
164990 506498
169026 502251
419025 551571
296065 401489
440644 541638
230886 99649
721443 312846
170594 501601
720357 496851
677110 351243
372115 739919
589773 401553
680297 71711
569692 114934
807978 232451
612764 254251
585589 45880
645253 396035
421603 561204
243752 175027
616425 304725
663089 103115
364348 737314
678186 200069
651284 343478
220711 196155
171882 110175
656281 232255
367588 738489
658927 288727
945737 888116
372444 740560
847307 224002
756143 270738
11219 210078
628709 301918
875389 207881
341205 154279
637967 81746
679239 135206
638344 242488
827444 128437
824813 200605
846665 305898
372520 742397
715727 266102
94692 404486
671824 314093
196437 602672
908027 647328
199597 623635
824948 225630
737703 264174
368734 743431
800870 186100
366552 741367
766541 327524
36160 179205
725375 264966
250033 476901
535096 451081
391087 707929
199637 583581
372073 740889
699697 132129
912587 264058
180374 143060
873177 971214
897598 207296
623804 287357
638700 96699
500352 74268
170120 504000
154489 185175
695821 260199
888991 652666
427992 543970
424796 557760
39995 197104
400437 430353
368677 738775
402903 430018
953651 37433
358430 682604
540149 968941
181868 591122
688445 93965
216366 196126
66219 184334
800244 223305
800341 257096
300508 139566
959761 909486
791849 782076
685681 114124
692162 441404
667137 280608
205024 617270
116169 359757
398884 428382
362477 741569
861207 211454
50194 181169
73894 232559
365528 741337
696801 75551
366596 738580
633553 237114
932934 641079
369209 739768
599497 549123
444629 531996
108371 665163
910540 648876
706725 265971
758476 297509
402897 423479
837288 244346
906778 646724
766018 393124
747689 645804
116720 242469
117577 211633
206084 624201
98589 291332
635511 236193
579644 348620
876789 224908
414876 554140
623363 773823
305812 270332
852314 204016
990290 893526
808993 260993
118047 852844
366759 737155
797770 484059
403729 436418
371869 744066
664771 106943
367961 743008
417004 553980
33126 200065
153335 659132
331985 136153
652590 149799
429924 560876
158564 659886
193340 600599
766494 241845
681360 239815
177736 833783
473951 111914
366598 737973
96658 185999
731458 224276
528475 458112
54193 213616
14413 229633
849826 225458
668055 302792
404140 714539
458953 530500
463048 534688
425906 550441
828814 133794
510453 920129
230346 875313
380779 420860
871897 153171
572085 441294
312568 242796
808787 219316
503961 448705
368028 737313
399677 509510
615191 284212
330940 146068
809793 228529
904945 101431
72082 631510
671731 131257
423395 559737
71127 240554
371351 738650
873465 202828
152575 799614
365038 746980
802345 238037
60641 218014
376121 740654
425642 551177
689162 267042
826740 132818
542591 238710
678342 285191
133490 82157
366969 736701
687928 319679
521673 440680
660604 299655
722936 317650
728358 486980
442899 554090
816378 199666
237851 397281
639234 271539
375086 743165
364566 670834
59715 222091
938031 656170
370700 737636
622041 247705
625473 322601
408828 740697
838223 200053
187324 173521
762840 237986
750303 135099
859787 212912
435241 547585
149079 409915
675946 353148
692505 120917
200562 612143
365349 745765
50614 212862
176869 749182
367477 738737
729482 188744
919884 580508
422589 556421
369591 744879
427356 549710
620646 44490
194211 91340
168366 501995
828749 252022
809600 38046
460700 471152
170224 502633
500834 463006
454125 82982
700103 251565
373607 739274
364849 960067
198964 93567
442465 551893
196586 90643
660377 263546
97415 284715
862509 187972
911482 649714
432223 547081
98989 209754
367014 738668
290388 324503
272316 868276
422040 551140
372927 743412
447689 534786
782627 239340
58082 222330
400993 428412
906947 646638
655480 297128
60427 200558
819635 226570
219493 584806
975762 7756
712513 109393
684932 247426
268904 526735
705520 152791
634874 238473
324149 330166
19779 348887
96499 320102
879026 864672
587492 296248
618608 60925
221145 510989
640764 241616
57590 857702
117653 631970
627193 281602
365711 740412
128058 792100
389266 729772
795644 265944
520948 739271
642698 154595
801852 218137
359965 691860
679820 298690
842583 201455
732884 259840
931275 751437
136675 755386
854997 210271
370469 742980
473130 113132
630223 733161
908872 650121
81103 742462
647414 72486
912415 649761
70715 592948
450006 537302
368006 428422
832676 128522
914449 652642
627072 459055
606998 282195
425041 551098
636193 213469
681786 310925
129450 260636
657068 286678
434258 546151
638250 240343
542090 451383
401720 428169
788220 72778
739266 232304
178305 702263
6378 231712
197162 600064
803610 211386
475262 119602
368066 741553
918783 889444
677942 307217
687429 275679
825506 247339
439215 535511
671666 310607
209713 63090
265227 133459
310717 185366
175780 92471
63159 232462
704478 80229
366737 744378
734532 508684
164604 618078
325410 137658
728635 492946
68270 194536
422426 560629
422685 553350
399808 723268
732940 266058
370665 738260
401412 432915
367462 742166
370775 743108
111161 272298
674844 145896
195442 94794
136254 677191
741705 270401
730745 294339
373288 741407
377170 740529
635854 239445
711475 275683
868943 200041
673560 302697
878736 884985
496771 431582
368308 747083
717246 163648
636903 52629
786853 225353
912169 650770
434846 559146
664773 99613
838679 209818
683995 253070
744190 246205
664784 105455
564014 337692
178003 599923
663477 101406
52971 221449
373413 740179
612367 338195
662869 80149
366368 739347
429455 533637
911061 648914
349123 670679
689277 223803
910079 651617
372827 740152
828790 129532
629807 299065
787822 232863
716004 259333
290345 466026
930911 848120
911156 647557
859842 210115
860182 200308
912571 650787
706014 348978
370632 739531
907669 56067
115522 232344
610134 18574
890551 584743
361153 742025
610743 248636
306290 147398
840572 523280
117910 844453
423125 561550
366853 739375
911403 651844
425587 558366
101615 834232
842506 220877
653791 257161
89907 639114
168681 501564
403625 427959
514957 456331
367175 742659
821952 603259
866654 892044
699015 225447
371202 739809
119756 843437
522428 795004
620626 123609
364822 739932
219269 328288
311282 81790
426526 546679
191325 188052
658360 92438
114844 873906
761678 229455
42978 180348
688770 272143
443343 536930
660051 263509
644210 70926
299148 887193
677323 294962
350390 675587
119561 367629
425007 546654
72697 257125
353893 692759
840518 508759
425377 551867
649391 287419
675440 130378
89066 251936
166481 691835
366561 740650
851323 239870
368831 741669
668089 321098
76555 189991
579444 506056
307792 166405
851765 234681
415303 554943
51939 206822
426884 555700
657246 259755
404620 436980
81910 213442
119360 814554
364268 739272
834416 195914
460372 532503
954509 335549
365328 737953
898622 615195
96226 208315
714118 230290
741378 268727
708273 745466
171544 504738
418891 553037
708611 331084
664200 102046
430717 556521
366980 742124
369793 739545
449070 531313
985258 677338
444359 532320
963095 611557
726523 151200
721961 275971
364750 740542
596455 266783
221735 184674
424958 543480
613848 358436
190145 158207
487126 444990
216476 438185
397328 468672
628585 81666
71311 215921
868333 216943
373021 741723
678101 291386
44405 798450
593623 299240
871634 110056
168129 501885
368118 740066
639627 244777
731387 245715
683086 287140
806343 204436
407290 715995
369254 742948
651539 82328
157750 619843
889451 227167
670722 319664
357568 744160
366446 740670
402558 718096
865785 218267
836066 213203
539614 443378
463487 148849
27318 173830
102941 550066
69736 211846
815358 237170
261973 489924
875570 952521
670840 274901
658428 54414
736425 502103
803928 230430
696352 254186
755063 236088
123994 368760
672373 265402
405871 422703
132651 156082
416444 744526
861225 206308
255009 185514
804042 606604
84563 225436
849147 261638
145136 857194
818602 215944
910233 647903
791440 175777
731988 154007
360537 737821
222006 411434
896201 703384
845091 191983
349427 810160
363549 738121
654584 87429
372627 742452
369874 742792
481078 207206
353109 681831
414189 554847
406802 554668
434573 545843
52215 195610
86367 195192
364943 740609
361194 741527
732167 497802
749041 240578
862747 283960
67870 211640
433304 550724
870788 186932
641998 300682
48087 245548
360465 669861
652576 244970
436963 542305
66382 221298
476816 121617
72407 199494
720138 502984
666567 93408
894634 556487
474687 114044
708797 255773
452113 562282
255386 421487
363500 739375
381774 757844
449720 532839
366047 740407
851580 207261
66379 248099
367629 738917
663252 107107
364068 738951
729387 482789
169311 501106
78923 715830
370686 738202
410504 722709
435965 971787
27303 253907
652097 290238
80407 558109
254595 546404
300511 794114
912034 648419
908893 648566
474884 115197
207087 73014
653225 330011
12912 206350
845472 208304
44438 233194
214027 617884
868476 203299
663333 284861
831126 127369
283039 186951
289350 157220
652818 238420
594533 524277
786183 250429
440803 533712
101237 266880
798353 228973
399160 426729
104774 647577
393205 738589
651771 288914
134213 435954
24704 225777
434069 556429
913599 648061
635424 236943
587472 100629
674947 115834
367127 740809
58669 205625
341604 550889
174535 851348
748087 237181
54466 198312
93265 185750
390596 748929
405211 424537
720171 149039
640966 245766
372913 744233
626553 275735
648152 57622
907334 884163
576829 452287
768946 238719
732222 290236
706763 277364
367966 738478
836098 675354
113948 231679
82177 221271
358927 677690
636736 239358
911439 646694
181788 98353
151851 178221
445135 544948
688770 269770
205567 189218
896772 505800
816683 202755
87125 179639
698302 301511
639608 289714
663065 127341
276623 135947
210732 812256
439484 535431
636437 239847
715484 496314
100852 622044
617841 280474
371779 741216
812646 232721
672627 99164
453470 527710
873647 676678
894987 614788
608610 308907
201555 614272
655789 272410
170497 503649
302207 523684
611754 349365
365819 327282
443278 536664
60442 892512
958883 880661
362676 693562
417507 84509
76836 252844
537460 76565
790706 243575
424515 557507
417628 550076
113281 237096
95293 187633
685043 71612
947287 101520
425505 556528
357006 128790
577010 279314
635617 101163
657715 51688
872939 211993
637858 264874
732629 235847
639667 243329
32971 252177
370564 740736
319585 185480
597207 251831
909605 648758
367236 743652
241523 906408
933353 187832
868739 190848
723237 273338
621511 249475
717411 273950
676193 301426
449356 536884
821862 202721
459720 558359
371756 738643
86509 213877
366778 738142
736408 499090
47102 199845
631424 77080
995419 71058
156787 822377
58583 638965
72577 230380
438635 545142
582063 274722
439779 538073
769550 293197
98026 689671
869154 184379
405899 430403
364366 740542
370665 743310
208331 597846
339229 393160
427533 558462
367472 737508
826598 131561
198716 419889
669432 291388
605712 295597
620293 176807
371510 747743
17297 834550
76973 228137
436295 546167
234373 403510
444143 534299
721189 304630
60819 249460
320770 525799
421035 553349
627908 263934
293752 140116
54090 672973
419646 547549
609384 142231
611800 305461
683999 273136
432744 552871
198709 152783
645494 259471
90382 241346
412863 545951
371056 741249
38787 191091
422399 548577
522380 446111
633097 253314
678824 241574
55672 209807
979969 205283
862245 215229
364389 741327
409177 732481
821568 224521
429004 547503
167408 209333
166652 185699
429592 556144
796197 216186
676918 61773
871272 208677
746094 764893
369938 739152
543796 833853
616864 243427
204864 201359
879602 168146
798211 215746
688679 257808
59175 60517
126270 37286
663011 104384
415798 556693
553414 119899
443419 538037
730995 104602
691754 277831
909091 648147
953969 627065
78362 197947
873355 117805
474146 116821
730263 480552
9962 198718
192995 611527
671647 285078
93086 111592
427607 558904
406287 736363
141798 584847
369878 738886
680107 292351
827866 129260
691051 246966
364647 740883
419414 551743
648533 135542
664612 295251
64319 228342
908276 647885
117703 889345
368720 741773
197588 610094
431482 547200
629016 73015
913747 652255
839722 209372
700235 301998
926475 85936
122276 184792
294977 71753
733678 127802
206086 466813
589637 554622
316681 167344
87906 221552
118893 316230
280952 95354
427866 551413
367145 739981
434904 538222
861088 201698
362600 737656
869156 581552
911984 652259
400177 276251
741704 282037
447328 531740
76198 245198
363559 739252
367799 741638
365576 738460
52491 210627
304539 466783
662694 46879
791552 468560
601889 17826
423641 551976
552386 973624
635029 236700
854917 184037
853792 545979
973960 781706
802568 222794
636624 240587
137285 652674
663357 112308
766903 14489
364904 738049
104754 407822
370287 743531
653687 261782
197187 97164
645851 236518
408575 437978
768949 263177
46245 239813
686023 386818
668633 110723
417990 543785
907196 644730
400652 434865
103901 205554
876483 198329
911369 647541
782639 252897
638127 242329
894239 198937
613063 295509
432690 547171
781026 362998
865032 201662
972650 66851
429317 548200
75836 249505
638378 60421
849403 275144
935446 831015
894146 85261
373576 742309
372424 742574
370195 742885
781811 230809
916439 653959
109359 620084
443744 538446
374483 740140
696261 252451
66292 253310
140455 906473
810997 200909
370168 739216
160118 691343
43762 228743
755869 212229
460572 534366
929367 716798
362613 741638
629434 302729
369059 740870
363667 741661
347803 667999
264847 469946
156865 158227
268524 474130
849437 218789
639082 101923
499993 451831
825972 133719
496558 300446
666927 102599
744451 311054
70269 194554
38173 829343
912787 649794
676591 280546
272271 477247
15628 227892
203362 447948
102348 190401
652371 76205
651271 91039
742517 500600
367299 743587
193533 603690
167948 502928
51814 771127
847289 226506
421308 556282
824342 212932
717291 482111
475716 118168
807950 304903
414873 549862
578434 288680
737855 507759
215481 628618
76554 201564
548020 457561
795647 269307
96067 217808
852795 188829
672043 301052
398498 433383
426622 551112
395369 422987
839876 206186
169193 503287
875417 700227
133805 111246
164177 127241
395786 430842
375517 742591
880929 149481
433969 555737
116433 219970
197098 580553
716910 276470
361455 740995
302200 148530
890804 621819
568955 419172
700396 311068
875568 803592
523671 462240
828730 244080
369781 738676
424389 553537
195272 826679
460212 152299
571638 414046
168691 502795
123058 510336
63911 233177
634528 238180
361118 739595
244307 460886
706831 276910
62432 212987
80023 207392
184990 776495
202061 97888
450306 530900
130713 572779
586245 122554
374952 740434
615927 271095
691086 226523
791205 251585
910215 652329
697582 302268
631780 233750
44442 218079
663617 104850
372448 743389
867623 209756
799542 107264
399129 429677
914680 648976
369656 740385
681768 271112
650796 253428
53828 815663
72006 250951
577351 348459
170109 503947
401940 429714
376061 742224
170840 499928
70580 617012
727768 265926
47215 222631
825927 95982
847500 660414
642371 269607
540234 349598
735618 294632
191782 601781
814232 227031
364519 743944
158476 88981
630214 88293
425345 554332
661106 107771
699750 326123
242416 409855
49464 186507
594310 419741
190563 588844
871275 216930
655226 91210
893215 696982
433259 534704
790754 210821
860879 193748
392737 736619
845044 671458
726627 884568
827555 130865
480202 669504
320245 476889
515963 210263
203595 594916
370464 741271
437282 549640
375333 746545
910012 647152
174835 841254
368621 742248
639492 251623
733850 488479
167858 501453
10498 943071
625405 104136
226197 440883
53956 246222
42382 223864
637063 242076
636415 238051
654818 73878
44241 239543
879977 202851
842896 632079
914974 878659
351403 670164
163469 140065
114884 435584
375784 739651
430713 378028
801488 259650
875188 205148
688907 325717
296233 120403
803076 216519
641934 248273
860794 203459
664394 251683
660732 279377
647730 219846
105014 209431
47543 240530
50755 200317
366662 736772
866254 202039
912861 650181
475338 119742
266987 149138
629919 260474
936692 74172
208766 859743
675510 188740
373567 743989
62269 673604
221058 524834
305837 325568
130837 112444
643612 65264
120652 384067
365978 739224
442749 537412
77157 238190
622202 95590
772244 269792
427036 554959
737335 239480
443388 548880
370162 739436
160043 145732
377151 742870
367362 740468
711444 243800
575480 888124
368065 741399
362765 681142
668783 298354
847489 566329
745216 757481
33424 223518
151960 39023
908748 647825
360795 684272
435979 535864
912062 649986
368055 741823
421099 552535
89389 14846
237866 337185
512518 417074
425200 550062
878536 188565
686544 287672
647923 234532
229611 429856
161961 658093
774644 262644
661069 290029
371238 737993
637623 243398
29989 798433
183879 168424
369411 742566
949903 747637
523780 644829
853091 219746
745339 236136
783393 366465
449435 437575
661904 145965
475599 117797
368766 739062
81100 213605
671295 141443
236997 150858
782021 538988
432174 558510
398720 428952
689432 778915
875904 190546
674832 147381
158192 376948
736101 507288
634691 236360
669905 282490
832334 248514
924658 691025
362253 743725
184163 592935
474040 117273
653585 292289
672624 105714
672979 294486
291738 454657
911175 654044
361569 740119
664118 105757
49201 207177
334393 629253
49967 225507
359421 743651
914649 649891
47074 200951
474253 116858
366192 743062
447110 532708
682078 256986
170123 66891
694830 251507
728835 317213
635838 225224
81829 246402
856045 201628
705182 132023
654517 105209
572307 324517
650752 297856
155804 676638
676871 275649
363534 739905
676725 397289
696586 271592
286007 508970
298590 404131
219364 166516
367166 740294
911482 648802
729655 258223
298730 163493
122087 801363
539382 721652
40827 243693
361291 680866
846685 221894
261275 416758
703191 269997
141677 659375
396443 426325
70125 202420
854784 201433
378192 737041
764148 290115
294802 192826
183601 602774
96431 220353
374627 742181
685745 149745
369807 745635
99517 664411
891346 581686
24363 51681
973786 622429
431525 551818
742563 619870
711851 244607
366103 739631
372110 737210
148177 110840
634556 237181
367322 738445
335575 145209
760475 242308
721570 248203
207021 600669
516428 485017
367893 741380
165740 265710
284840 298021
102486 627285
366332 745534
367644 740322
767966 231196
821648 256350
594375 40525
770108 239221
668108 259471
307693 140827
371094 739191
878751 618149
664484 272717
674124 272032
209383 598628
279360 157285
397673 424694
737564 498785
194685 595452
249930 518292
212565 454741
23045 187575
368778 738893
785115 232295
364678 740087
366572 742362
668158 110670
694161 275601
404155 163171
70798 157879
366710 742203
334717 137209
394385 424461
50321 191185
912921 653424
353764 532054
675884 235998
302613 130155
862052 234138
665894 325862
908190 832707
86359 183992
817468 223259
95235 841137
669896 78206
452081 538589
806790 266001
653681 346009
406851 553104
207638 100381
428409 559293
416665 551537
63840 196809
421878 555509
706210 123620
677352 309934
716131 148949
370975 740463
701284 295021
451719 942864
912035 646843
260719 147229
575281 294628
367010 740570
613185 280454
652005 28728
446523 554972
702303 261982
771127 167366
71088 265087
69086 251265
652996 306377
76228 209807
651720 41651
629568 54219
623627 330944
202885 94950
669205 273343
416693 551519
696853 256097
923954 579200
61237 239966
287233 166766
636939 239316
891500 222179
740456 330609
666082 287984
578000 109310
435613 551763
870720 915675
23033 228564
623334 319464
403225 427009
401923 432926
665554 103248
786163 194044
420112 547374
941595 836563
893408 643428
714723 707612
448204 541589
665362 274410
651836 364052
778831 215788
698445 136644
218227 732796
749909 283855
426302 550678
506539 414980
375931 742574
60567 238382
146513 388134
393173 755184
241615 28182
368593 742497
361035 740477
910560 647026
678492 80973
834916 256863
907936 94596
840245 192851
229932 91927
639181 271607
305273 342108
662432 289753
536414 502227
723574 505814
668765 276989
827879 662559
722426 88413
199106 388490
648986 282497
73912 236410
664795 109610
363357 739981
729706 290532
909357 647145
449856 533951
424500 548989
907200 643463
744987 285049
697126 48669
661629 280524
373554 739741
861990 197938
679035 291198
202497 72467
829858 130225
701271 119123
894816 119369
748391 701656
215042 97662
424592 549248
426107 556390
636426 258376
629912 274426
228593 165726
360302 743326
663822 288287
679741 280862
310913 116452
534315 176119
715051 230883
258656 327889
169224 501849
429668 545613
184955 588897
206564 102392
737315 316376
994580 737693
858483 223035
686006 66181
49709 184574
243764 458705
389198 371064
365048 740412
127499 714284
530338 315134
45749 204838
638892 241281
669930 324570
489033 426020
812346 252370
91055 158546
325059 148131
853400 320841
841352 8349
599456 298976
656681 291676
730828 257745
663347 102970
853042 211041
3121 194733
844216 197341
263665 454102
931380 110001
63283 234751
547191 258135
637769 237315
53865 194421
89244 220272
759938 256171
679205 283630
731015 291077
169773 502850
216082 611784
367713 740111
426810 550130
582400 325707
756496 294087
364309 743294
876966 610474
331846 637107
291759 153209
159626 50124
830475 128578
176845 126718
428266 547173
430664 552232
196402 197442
680674 292008
690750 333925
823782 134009
747455 410197
48179 203144
405204 431095
38119 797251
661204 109162
200398 94337
443977 536548
605834 242061
475029 113175
519932 441286
427985 551943
664016 52480
364906 737875
658796 281569
427018 553258
346893 469953
802481 239343
60551 229996
365964 741748
642469 321117
894765 707538
367768 741812
697441 327014
662245 106356
608486 66668
71115 219338
833241 128216
848075 226675
791798 248451
521892 630551
672005 260761
865544 210719
925274 620136
642688 127687
660493 107377
827681 208690
992314 59372
370673 741747
365344 740292
811751 219040
739629 497603
864492 202249
884770 479619
47972 869975
181630 140780
620414 238964
168641 503221
448108 535679
857699 196600
368978 741118
669070 118788
402035 433260
268676 481385
642189 264687
370966 740858
59101 207414
928159 661614
45265 211570
689272 79388
204232 613909
390146 803753
451098 527150
684582 272840
85121 207964
790595 240110
99379 215179
357595 680223
704757 257941
672529 282292
370135 742037
360398 694642
288773 122189
368465 742880
959256 645908
425933 543401
913425 650962
365718 737508
863704 195742
420967 554356
43017 208824
834024 212255
716733 303937
655400 93815
362176 738210
40012 218468
545856 449518
365546 738064
366176 741114
166724 132238
92203 259900
434850 553872
882940 185250
439179 533859
45230 246084
916998 649451
891019 597158
560349 412314
360100 738106
121957 411455
415027 725742
344610 443950
153515 840539
663892 102036
422718 548862
94943 220814
851426 236382
103735 647620
853570 193004
869839 212232
323415 420892
436564 314446
628543 248949
829007 131562
700598 228037
139441 878222
635890 240256
835398 700328
473951 112917
73018 224229
681029 264808
409992 429048
365807 738119
753648 298409
851224 193715
845041 180244
183163 871130
129045 485014
368632 737480
670847 251506
732448 314812
294463 174989
518074 669975
779371 289626
917568 89788
913332 653656
316203 161218
903026 99977
659401 112911
64944 190617
143059 918337
64090 223120
407913 429390
490197 121477
368843 740272
695272 245839
979286 902320
417958 724277
727347 473838
382703 676628
37003 211869
971604 727302
887260 176161
440631 588940
910115 652770
427893 547785
370524 738079
681341 93013
531673 436794
687276 58571
363004 740228
89765 200589
82815 216038
861107 200907
13314 89503
613786 329716
583156 479956
659296 286350
205965 91418
610561 136345
190527 151822
934839 73547
773967 255076
163734 68535
364271 744338
401965 429021
87375 843804
367430 737660
38842 215528
302066 164488
680359 141997
208085 578180
368358 737926
791312 253575
701703 103732
101522 497388
686583 112416
373561 740184
633555 280054
436155 533210
715208 296475
527414 411642
374749 739537
872595 608117
286101 154804
915906 77417
599974 63154
633806 237823
856468 417158
363559 738546
162951 608756
454488 533324
17403 220070
887894 165131
863485 193436
125603 669730
849816 203893
655313 287622
364966 670962
188036 164438
702680 92389
399591 430137
280844 645989
31631 164570
205777 76708
707643 293159
668099 104868
148339 113566
483290 431896
617941 318166
852324 206401
539876 433436
92853 239185
816521 349995
637730 239346
392638 429150
899126 677835
711840 357042
52923 844521
301253 107846
652604 27051
662044 101177
126915 87350
715638 483944
365681 741431
830898 215717
742265 337843
911740 651030
809171 214486
863274 193358
689188 111686
713122 47677
339273 155184
310965 167091
768182 241496
692818 170248
414793 557902
868505 198988
473359 113854
983815 393449
865439 80678
361154 740065
371809 740084
418814 562984
725054 304639
77501 234154
309523 687373
135346 636503
65744 227470
883124 196685
50534 216626
660186 102422
832142 199032
423835 546919
360995 740763
834657 643057
647911 291185
417239 554561
373579 743561
826012 228271
199789 148837
664336 109899
430777 555217
95580 198130
438067 371649
444160 559028
369626 734061
424136 549589
795173 209512
627527 337063
828101 130851
254379 121487
636520 238858
709854 259130
845332 206976
676435 114293
600585 32600
383636 906403
638042 255898
368703 744495
877796 193620
145578 832592
727802 513336
93471 200848
54678 223668
333169 161154
364657 742281
165485 622329
424763 548040
650396 331187
901814 916098
892087 309832
79159 224902
680566 256947
564721 334460
833265 128116
419276 543575
468557 423565
368582 741233
688464 241423
441302 118830
914692 648349
656153 103575
854088 203011
296918 732191
633479 282628
702340 288067
549237 461850
369817 747474
702550 308649
736133 87620
244821 497870
863686 590303
370739 742167
908219 647279
98425 329134
214579 72715
703126 307014
425689 552082
359025 740971
196846 600170
598901 299176
363798 742553
170964 503490
182013 609874
46209 242920
712780 280824
261924 856240
254340 460907
366474 739832
920036 637102
874378 218140
707114 256903
672090 300446
359585 678278
243659 448413
872262 207789
527935 945699
998541 83287
722260 276035
761615 222757
759131 297283
885871 625455
97268 584929
804310 245204
365652 742961
677962 94629
211709 117302
466355 803506
370079 740902
61055 183877
835311 242365
61300 196163
679552 230026
242586 149433
664631 139383
729516 295416
165527 387891
866721 876044
96128 224465
191971 628251
49191 162341
845212 217268
421478 552357
704845 216425
55472 214562
33399 179059
341337 129439
672607 291433
665992 337070
722836 99426
80301 797971
45918 202530
365083 741069
367391 740110
850458 204034
184418 599210
765284 292165
397825 430872
649186 44785
661471 307324
593882 489026
913597 652650
698045 217035
668820 285040
677361 150611
829834 266060
669274 105429
441692 550925
717841 492655
49111 198971
396701 424755
266280 497882
190360 600909
427225 555386
368269 742472
203998 591846
640560 264293
826084 129780
848279 165645
678872 293198
201803 594784
427627 556619
58645 244840
286639 176714
875265 207381
667026 107075
361755 739471
121769 92781
669273 287696
817100 220366
661859 99903
531431 519672
199475 593905
387696 618003
323142 2684
624991 112895
137019 161582
363426 737031
884152 180386
105852 221586
363296 741575
275893 45439
57393 191150
821415 239626
575201 260488
198829 93939
831264 196880
366562 741876
19659 211582
719578 123730
70541 220008
299773 141667
862169 236342
372706 738869
126697 148004
590143 194699
202714 232885
365577 739613
694589 286681
668324 338777
308609 405512
427482 551650
654093 267014
792344 162322
60687 837914
59465 205328
882259 205073
104887 40539
256297 744586
858835 244809
206901 194125
86901 853701
657210 109418
247902 334826
841029 209119
985107 12212
956088 914598
665788 328417
880053 212073
165620 707930
370634 738824
78240 636552
360310 738346
366180 740778
39564 179400
824567 199780
761812 243650
813862 201566
923343 792780
736316 320944
797269 331431
419552 564351
359508 739597
237365 489488
786813 252980
909881 647040
371555 741506
361491 740351
197794 603396
815350 264266
856419 638774
400960 426800
170079 501214
373072 743022
369603 745382
867625 185892
102819 827570
875432 202504
367040 744076
754586 224513
844266 261736
370752 736866
909917 646841
683056 270162
687366 273396
884564 668331
808250 231933
88427 192888
99789 207151
211994 447088
426010 543853
193140 603952
977251 641831
911689 653247
368901 741697
761112 221649
585215 357692
157755 604703
827817 259181
734590 519072
208460 627027
48241 227391
672630 91878
230005 602993
41866 226296
204520 585267
881044 211831
845237 186982
659749 84790
731752 492583
406969 88598
713907 108225
370813 744648
444686 531702
369440 741299
399352 426457
909124 82679
436317 549350
133822 632824
406057 719631
573194 139115
367661 736716
913236 654516
106116 422245
964284 678665
41898 259718
145187 445855
122852 829068
119544 186678
169689 502221
800069 224125
173754 68442
691347 141263
666548 345342
370275 743641
637697 238525
372160 743665
369341 740006
48242 230177
599544 521836
569334 340954
666115 70484
723832 500934
699156 255063
711330 108225
331558 868616
298962 168785
168575 501382
912793 648791
831014 214499
800676 203633
358274 744485
141471 601595
637256 241456
360347 686654
695118 220707
369193 742573
295560 162129
358830 674937
653229 259167
367717 740465
670880 105557
697743 279139
475591 116295
361856 738318
425469 557305
915167 652752
702450 75906
58489 245787
833606 207723
303360 529105
303474 578314
54087 253081
659852 292100
425546 547669
173835 605768
910715 646421
669916 109568
367975 740512
611838 61455
157474 57485
422904 555470
42763 231223
370910 740764
415132 555041
810332 235558
788350 220109
52882 244827
639712 245563
259248 139063
16197 797365
690107 90873
700593 291956
637651 272807
398103 432507
677417 72759
670249 299291
465499 908148
363776 741815
99066 714618
814255 219831
763170 260840
66914 216239
834743 247985
685572 259981
458466 537695
428049 553557
600704 374094
646223 278106
354770 678945
641400 329271
793577 233330
580755 271090
910543 650492
982521 732733
199794 602278
659457 249494
283656 499782
187916 584466
334216 359598
846608 219967
399558 431423
277242 444799
364634 740298
683923 315277
198914 94160
722808 482803
630561 320058
621315 308219
996479 738741
708127 237024
604803 241096
688764 87839
732493 251098
233263 540378
602181 340353
908418 642275
106633 823638
613989 64104
289949 173747
864168 215874
771620 260888
686345 305689
665627 109283
595568 156605
872847 233560
57132 180410
890921 560452
913609 649307
240946 94583
660893 106384
401849 432878
651609 68029
397501 760180
740261 494786
301993 117902
109769 404434
376578 740238
813033 255255
442092 549647
684770 149276
846141 209834
918851 817547
909923 648200
434642 542951
286346 466452
652269 110128
99771 215476
369022 739408
585403 391279
237876 168017
67451 240724
60491 286100
830867 613696
371013 741942
844728 195899
839140 242882
160178 827161
204714 610236
727059 349539
363501 145707
795976 253125
961335 729875
633875 235397
223610 426121
34732 197833
297794 89850
371444 741604
357266 674002
184024 597764
727197 503061
366827 741854
847343 612005
176255 201284
651349 101479
429380 401045
855221 210387
864078 207324
636761 240350
164817 206822
665894 322930
910796 650710
630214 276041
291895 336139
654684 104464
83133 175975
677164 300223
735063 491488
619684 285240
418944 563120
141709 838385
352038 681025
764416 209305
474647 115881
698062 244350
682193 295162
365149 743434
848730 212318
660981 103499
191018 138369
65135 214048
617861 288211
432370 549570
364935 740216
250177 612336
658731 105825
684507 110821
910885 915817
166358 183304
205259 596110
131938 463299
145924 151158
416273 566290
109338 218830
630528 265827
635537 249865
908627 648222
364506 741614
673207 105117
829334 227187
280662 155970
45193 257002
528354 455520
369967 741976
840726 153994
8594 218369
668671 100743
712406 222940
754606 261057
910070 650970
372573 736965
635697 241476
489637 306448
636772 240559
252149 478572
654151 122736
603041 544865
141403 976745
30290 653021
495475 449358
90119 230523
744132 232227
715315 281537
177314 152721
699312 245342
436953 536881
72535 599175
403729 428935
844729 180426
73067 193370
934591 585998
671429 107870
969508 685533
563628 456950
709044 99283
666685 441047
170166 500945
375878 741328
689619 235912
857792 204251
328452 145134
910066 647441
372159 745313
371947 741014
658688 290629
661149 104041
911194 649559
711016 313756
913908 268595
310412 964554
368535 740729
911348 650508
646539 286278
70326 767707
90571 76963
364944 740036
638930 122371
616884 54461
774389 238013
419943 559524
68037 187461
433064 552869
537822 355211
719363 479873
630484 208929
828711 636539
734765 496092
844013 249502
909715 645243
800458 234016
654730 81107
614217 361257
371551 737755
789181 237262
863267 225639
621844 283352
848556 669831
372348 741394
409527 424452
788461 239614
726820 473585
424665 554872
995132 691292
960683 667630
199570 98760
148503 448458
367034 739758
553457 229561
367094 741222
26985 205021
829558 216018
369415 740720
665818 301437
200770 93016
805871 220158
77931 719395
65547 222393
754187 226484
911662 647155
636697 243138
840736 219421
366216 742584
282136 141528
951460 931643
888181 610402
711402 313435
658840 289150
886255 209356
370945 743232
475286 114387
781168 101891
84423 182468
293785 482237
374081 742953
120534 326097
307418 145847
572211 625318
683980 289771
205570 100868
113539 601258
38810 221073
167699 145084
116677 839299
240406 520371
931259 894730
869004 181458
427471 548131
436159 558440
48678 209774
635349 236759
787895 125084
364230 742493
420010 552977
365674 740500
693189 279932
929169 703588
367574 735146
861154 197414
645587 825967
808768 226331
196044 118571
799603 248504
126743 264851
59214 226457
667483 392862
196824 94050
364352 740217
7321 197773
779960 324872
138753 657373
722256 450278
810002 693788
170375 154637
829666 130485
367337 741503
567293 277950
422747 549281
435881 557709
613889 344435
362078 736987
360085 741200
627554 96951
863717 239016
940448 680993
921133 187152
414733 532219
681966 288207
531713 212916
299615 458443
266709 406422
475106 117423
911107 579392
441260 550398
911620 647554
372007 742690
364782 737053
680879 66430
372747 740951
651895 248618
664167 102394
401013 431938
860218 568720
433248 553008
925723 629434
744793 248861
864425 239599
4333 139928
659953 99817
173482 646482
370182 737860
658914 272320
169243 501399
910758 649169
919446 596781
370681 484123
313758 110345
371541 286011
782050 292353
456838 535088
367370 739394
860568 214326
701219 85563
911197 648785
416597 843200
700630 666439
414214 555440
35943 121522
357639 686874
688750 98615
373426 739266
658078 284404
93107 792095
363541 742125
841243 642294
370767 742148
199940 598914
444323 534883
63341 253742
125420 863957
423236 548416
402701 431265
659197 289847
259769 341458
883462 926961
852571 192736
430672 263187
201049 90470
242072 46377
687548 776181
673846 284922
699080 316466
720694 332182
653909 102174
258802 405830
421884 564063
432787 553234
373887 741068
924038 861412
370235 740262
930815 703680
422474 553499
414423 417765
945741 628660
366677 737980
368899 739823
90760 821686
363307 741020
829008 244834
438969 550107
762977 304222
600592 247078
62768 728614
204469 606464
24966 192975
684210 138310
577541 278780
629287 287202
622274 881520
605068 239166
894790 861576
227526 639680
371136 738342
450585 531241
370383 739133
366153 739020
453922 535013
371230 741398
911949 651496
456516 197236
682662 243639
420473 555676
770558 232905
647790 60723
444375 534483
152342 639668
642810 194269
584895 444619
704460 173445
445220 533686
370294 742531
209067 606497
267407 113860
523488 445361
631325 278473
832176 219947
394417 115568
363806 739475
106017 882319
716210 264647
913775 647328
676644 295442
74805 218830
365211 742274
45424 234658
270167 138884
852062 195517
276753 92413
33934 421346
306921 101142
493548 162856
97943 252901
839978 205753
182541 964413
631398 360187
650391 25896
913987 648077
821228 242331
446005 539102
235532 410961
912032 649508
661440 100225
363197 316156
652430 243173
368330 739340
461813 474358
739143 493756
806949 294766
369039 745894
371427 738735
259743 150272
341769 214842
426993 549672
198425 94928
441007 536334
496592 811299
673049 107756
825202 201830
983807 823809
907245 645646
928792 656511
128377 124674
633411 235887
890523 591302
941269 524532
503111 884431
195111 603871
434503 97896
584958 483236
664856 59556
365192 741159
714806 508409
374419 742872
370072 744451
910764 648929
409583 556192
277833 18617
709312 248700
92695 232690
67185 432372
865493 198393
657480 275666
642207 295158
426369 556386
99553 652159
365153 736812
824209 216380
738843 485958
791710 220988
365533 737155
370293 745253
539664 246768
746615 219286
912247 650451
369705 457680
407895 424528
637147 235987
790181 766378
640923 246812
368854 737720
636792 116819
364639 741050
421078 552273
402515 424098
187860 166347
85629 820044
594958 68907
663649 107854
619020 34751
406602 434406
737002 211812
370843 740561
828407 134404
681489 273963
703805 256906
672880 323269
440776 549739
686274 211520
915943 609966
911801 649964
366759 739354
841048 202174
517338 446098
661699 306633
762732 261891
168074 503218
818314 624476
668145 290388
637338 79990
44687 228530
49280 839565
941772 872116
679494 86208
205550 56835
843430 254667
701646 311171
370183 740958
301579 162676
626802 318000
681490 253046
159262 830292
367892 737824
847415 212489
634207 234628
399171 737074
696859 243148
345488 676976
372889 743409
17044 178363
367083 739647
88051 832516
433314 555342
4053 851728
375584 741156
821870 233765
378732 741326
727311 241583
450892 536514
174395 878470
208246 626315
74003 206066
542709 485965
681252 121767
829666 211276
395521 430394
823567 134650
497276 459816
636552 279280
915154 619559
732658 41701
198907 94248
73377 192980
667422 109819
293776 140294
369498 740659
368314 738361
431784 637992
846154 594639
423010 552135
122114 263890
658526 318022
219991 851217
903046 665448
74591 222509
439689 558415
369497 740548
612745 66479
805302 246948
645271 269327
412058 718063
116931 416835
190752 115860
401579 436593
101339 200817
476694 116995
48277 235878
422578 555387
114466 627478
700875 284109
962769 604060
940458 76759
512691 441079
892519 611823
659689 292201
829220 222030
781009 302615
416487 557552
67905 211935
701496 117520
620496 248981
422534 559083
321636 458992
283772 159818
367155 738407
130343 389275
684102 291964
753930 270092
79540 216948
913018 651396
700500 254156
417224 558409
706971 304686
332496 885557
724407 269622
132563 433200
875524 691782
324265 235574
365812 739746
630998 269621
446151 534360
208142 599919
433571 533982
96834 441754
420266 559878
368556 737966
720181 223077
377767 741146
653594 276699
374754 741313
980090 892953
472359 109001
368983 741654
750658 241813
156984 406725
649744 307023
542318 498523
352091 487786
377501 741606
805013 227327
74976 227514
369317 740537
373415 737777
910486 648493
837501 232707
6436 852338
477146 115349
78914 191215
370790 740970
365262 740454
627157 82185
428774 552437
134136 24981
832194 901307
647545 279755
363858 740642
670070 220710
911758 651224
369090 740616
59215 894813
369286 740265
518062 271764
669222 102582
429867 559232
642305 339071
646405 273837
513217 560016
370105 739828
242680 92528
93462 725290
669440 285138
353684 422353
368004 738993
634474 114041
612800 77178
457980 536052
812804 232462
666731 99901
737346 70197
150298 374165
772914 221363
355365 695546
369419 739440
360436 738163
635734 238544
852925 503790
370084 737266
271389 726368
699031 273164
202464 612961
699629 320873
633910 33723
924842 779030
670598 285062
370556 742489
792463 262850
871701 575407
729817 485416
89215 291393
696808 100467
697770 248125
806347 239547
731964 503364
882513 196183
136484 390926
365668 738809
129928 788285
713353 201321
355235 689818
438309 547066
676904 325104
397065 427680
699179 177794
728616 97573
640921 323590
863377 695235
370511 736681
875219 183026
636474 124366
423977 552325
403077 423145
369626 740129
675865 241011
855278 198977
415082 548728
125596 673094
688287 186047
154648 69019
398098 722727
855315 225990
737389 504000
826649 138674
908943 649602
339567 408548
445505 544972
146174 619431
860473 204012
690884 305871
367261 738561
538940 620277
194845 591279
729493 270228
429142 550513
660112 287152
362804 740603
862457 191456
427415 553465
971495 324335
633623 239043
910531 645563
653955 332819
672989 111604
492828 647103
163465 632282
695570 293987
826321 128502
365328 739532
110265 696170
368858 742613
370427 739361
871227 197007
627150 227190
474153 113963
369384 739460
370749 739774
941973 918709
661986 266232
150758 190958
231688 454891
241945 480210
617091 336753
664736 96856
366319 741047
902389 875485
250261 120465
826906 227447
362306 737721
52298 197405
693433 221159
309730 111817
701411 102079
438834 556181
219503 597385
686247 323512
404997 777905
670168 249998
430300 549657
351757 115350
827956 133836
616282 289613
573954 320709
427240 551805
437273 555295
660919 104339
702190 331702
654721 985258
423501 550114
862720 627441
74179 205373
717590 257489
374361 737613
474197 480291
860561 591529
855015 206809
727987 627472
635340 589891
490272 451942
43711 625842
375831 745206
369844 743208
907150 364294
604009 86673
435301 555143
526781 434176
187244 616988
693200 336514
677607 118095
368967 740118
847888 225915
50030 204818
827791 131485
56426 220393
693114 126529
366101 739088
155571 841652
767961 248783
526166 437941
829235 133969
734849 348693
849110 222881
756264 257093
368808 743245
707460 303847
96743 659048
804297 251842
401012 428206
77898 412350
574791 889082
853069 183464
70620 175268
704844 190709
665959 148710
587366 307868
577269 319130
363832 739278
258298 163094
899572 576587
201608 590184
827746 192996
256473 148766
271100 464877
861905 223512
886688 919414
652832 280825
366159 738897
426833 295691
743804 232134
641360 104032
852016 897051
753200 337081
644920 300569
159460 75742
819325 216300
368971 740643
560356 514757
282260 123446
921724 948354
199144 86772
399856 435138
734052 287277
395156 427327
167724 503147
28503 231984
372104 740727
745712 970708
790379 227671
674216 334830
824399 205329
642965 340988
779617 276601
851697 629925
659155 100147
868489 252943
867697 573293
657714 107522
704601 306834
189989 604445
47266 816526
657804 103673
1101 794350
137779 631169
600468 99992
889371 109152
42252 204478
368060 741997
835302 263316
828145 129739
656674 303343
420147 558085
202161 98020
63050 228210
430245 553535
286846 169720
364575 742981
924552 867216
730648 339021
781841 276490
908452 650118
78243 638668
418962 554439
876559 189786
375045 740584
373313 742670
668311 105035
358561 224587
735209 494507
413649 559009
444658 537997
516482 472763
804337 217024
436114 534769
420626 550700
642686 175276
665842 92559
944590 643013
557872 501505
72060 177774
408658 743411
369296 737516
362611 742922
196589 146881
364897 737497
244124 341991
759627 95335
68211 819848
618739 297937
592916 280454
399510 422522
415332 559757
156111 653386
521592 458766
662570 226491
785108 328438
700931 242889
681867 248977
810675 509617
668659 103702
596709 927684
819157 236821
406349 437131
166232 225820
170478 502749
416455 551734
834618 199982
617246 295698
842032 198450
828234 130620
589931 141515
781133 278156
365897 742984
743730 504290
201917 615179
878674 346685
28468 181307
90302 198399
662531 107357
840956 205203
749741 124145
629906 152690
280750 128054
822174 196299
909633 646950
955937 752162
570985 925176
116355 385182
43633 196522
442860 534804
367476 737917
287587 315390
869981 209172
868374 199828
174049 108494
448100 597234
546561 297078
627631 236618
367208 741089
737894 486851
883489 213874
120162 717416
474878 110940
675464 284924
654137 299381
634729 239070
145807 123066
911791 648555
142348 426883
366814 738681
36313 853894
42933 228289
708080 203208
759683 279494
168386 501809
427322 555917
372595 738774
502156 65230
567429 286369
150416 836914
695007 255776
168883 674004
91598 210101
364086 741539
76053 208795
395981 432751
689800 96240
359753 734460
640431 244916
802312 255826
109189 215693
152773 153802
912927 650741
283833 113925
207639 603883
135037 877787
74955 197934
652451 336212
369748 734049
548907 274927
473075 113431
473437 113122
911189 645543
893663 635140
637489 240128
666947 291592
653202 292311
990834 664804
869107 194876
671559 106716
618529 265153
643292 286620
910873 651346
424876 550664
365707 741070
824313 819833
858838 231002
368336 739710
29647 748253
365718 743703
133797 144832
998065 531237
178351 214520
551894 450044
277333 152518
81379 230719
140817 140112
828329 208510
370722 738842
368840 745770
169511 502099
550769 443198
745358 255047
111556 136158
842002 429596
77573 233583
643071 257437
913148 648686
829059 130272
871499 197320
521902 418005
418597 557258
650915 313393
686597 245889
20733 172189
649357 300313
667542 294802
650339 290943
346908 411061
822339 206616
798343 269557
364812 338553
473472 117954
162362 85229
798824 212904
43230 190141
725525 299504
192841 96190
666993 345953
77819 249335
139937 858503
422737 553867
364792 739819
326409 499475
707649 325707
883016 728617
183796 180326
406684 424811
167961 510107
628209 326083
398360 720989
373422 736724
881609 212533
640066 138378
607818 247957
363337 738872
46893 860492
364004 740644
304446 442544
842317 258310
372922 739252
667020 292493
645682 287477
605323 275075
150985 653024
633453 337459
909109 649388
638450 301210
50754 233199
87533 232920
34781 196772
441814 531543
236644 452833
508087 275452
722408 297980
827730 127156
642575 324800
858715 257680
179972 602142
242463 162238
649568 291508
652470 49375
840696 254687
799733 237565
427458 555011
479641 124379
190847 62386
43546 190742
913872 652438
853142 203776
552615 446925
633601 236137
698359 254049
855025 210076
846405 214352
102310 638271
853301 189437
711135 337729
906008 646797
375952 739975
202750 604015
911523 650556
373623 738884
909003 645848
844221 242139
288758 159026
869900 191001
716709 305897
176434 393027
655779 285762
697772 254691
82101 207230
697242 146542
911927 751209
840824 190395
853195 208216
818683 246831
766492 258638
200839 613061
297316 106196
131974 688477
63111 251051
704107 308241
860632 209272
409509 726214
66973 214095
367496 744379
428091 554400
368892 742410
427274 548037
650194 245676
921271 35036
911015 649449
719171 142935
923110 637604
448171 536928
440016 534083
778919 166206
514557 446536
623087 298648
339708 100989
431901 558096
105504 846280
926984 684686
746304 210988
871099 199362
601573 278088
297896 492993
102669 836886
364197 740924
673198 259979
434362 813541
405919 856242
811685 221262
900016 899728
644912 301385
368760 740119
675410 293159
956265 257669
681310 134297
896368 277321
657535 335986
97209 840997
202321 142432
836046 200229
859595 192406
372361 740084
595705 306900
71844 242964
89756 702837
809893 237412
277202 149506
706701 285161
616091 90067
666637 102712
522400 465449
418076 548873
412431 741424
354545 691346
693851 127521
704701 242091
397091 437168
657917 286852
42846 194691
626614 343539
658810 284052
202299 95684
705172 294436
678764 92843
646026 295241
439329 548360
884996 554295
762519 321979
373362 744797
625914 81340
784750 193437
370160 740780
312905 188075
644739 111269
581547 270628
366304 741086
193810 112213
654301 99894
364885 742564
399516 435968
549260 423031
620424 232773
366830 741654
659897 103339
642622 133099
430046 545801
699949 171646
800723 224805
208229 421573
653883 293027
190570 590935
655276 258118
398823 430266
429870 506929
328231 190451
269523 274578
805825 232336
371884 739514
205308 51417
662273 94936
672707 213480
53693 191133
375432 743028
371752 741893
677402 111271
963547 873679
365882 740402
667163 295290
372485 739217
595978 368507
377746 739970
398369 432044
949900 843667
671748 279780
93256 246020
415261 551075
711386 287964
81298 212508
702610 248684
424713 547886
715393 71410
718602 258380
857884 188262
767268 236995
124944 583938
686991 62953
241153 835098
181655 591982
639021 15036
367206 742008
348058 671402
909724 648094
735988 476921
936403 580846
754371 49821
430741 561328
409944 555272
400305 428760
967111 890667
29541 209238
414008 552429
428811 561254
433890 765134
367784 741021
662137 99347
262662 116642
404844 428622
723400 134497
96961 629296
168545 500976
206389 113733
801660 236219
632442 237594
596496 271773
271687 792319
870857 532172
645242 65971
152970 135163
655162 311684
234251 106536
346554 476686
877364 606481
100695 205527
851470 199129
777713 257525
308100 556164
400513 752119
83358 840998
53789 234619
368284 738702
870130 203710
104188 847990
800024 235489
842302 195286
423992 544647
813326 199794
911317 649365
434016 555945
566162 424582
431244 546396
741844 211363
373364 741722
644912 242371
309195 169497
636072 27581
490117 468460
425434 555437
635050 292538
226590 163348
93993 862005
367550 740698
720995 362696
827316 252936
370990 739785
65738 203006
367454 740165
367664 736875
419923 570219
706175 104944
616048 79112
368691 739522
49149 198751
212201 607580
824300 134311
396724 737744
483568 405327
583589 303139
675949 268101
881782 922119
416075 555509
791046 208202
145746 619526
751759 279703
427937 551780
170151 504469
433695 549225
368270 740727
629024 236048
655872 319638
71368 284501
722630 229335
532972 417217
750318 240079
422840 550875
674753 291837
400262 425148
626099 309507
363753 741041
661518 176340
363103 742189
660005 111642
929686 404484
8906 797244
950205 895133
344004 149485
699606 286844
313167 135401
828662 199995
49315 223237
411843 551938
874728 221948
532900 469638
372525 740049
91435 226239
364826 740106
423233 557542
371748 738863
367373 741771
338345 147407
441987 534433
370982 738523
224146 152598
213953 614601
350098 663988
850729 208527
710383 278035
973774 745608
369769 741365
523070 10644
684202 187503
664411 59582
40993 277478
249938 190251
280460 347574
760391 230424
647762 281978
366549 740503
595146 261492
449978 534997
783733 246075
800366 230177
371887 738408
101404 856539
368480 739191
369789 744104
79001 211844
370287 742267
675894 148307
364940 742938
861975 728830
65403 607217
640950 154979
423434 547980
410718 213870
394888 424448
97706 226449
364882 739188
392144 733832
711366 281350
370600 744289
367995 736930
684378 240261
213404 70381
458555 537422
490398 450759
753235 261390
746914 89361
369879 738517
366306 741823
850443 522972
367902 739369
827405 128514
661687 246920
283095 101031
654572 106489
680848 263793
894117 690946
644577 292035
738786 265649
418127 451021
634560 239357
368951 740967
371500 739341
827422 128532
621577 73378
505063 151176
425666 556201
635546 238132
720315 129411
296137 351119
798749 206617
363080 744953
370922 739754
302872 143888
90157 259912
671245 114921
195380 407835
447151 533243
908673 648857
964505 642756
212387 34092
822919 273235
173854 72972
663132 94979
366400 742641
399004 426283
85438 245146
291602 362779
75011 209582
888166 603581
371066 743913
372235 742413
806323 222464
426264 553166
365051 738053
668715 95094
368512 738200
672741 311474
668209 103939
686986 269712
430283 549415
217999 612491
399945 431938
838414 189387
678860 322622
452860 525015
670463 63417
783188 109675
855059 211556
865407 199788
209244 145287
927982 199808
735869 248300
212868 585995
58807 200035
473500 113779
638116 263004
638708 243311
608752 670341
848833 158240
369437 739198
894414 372772
416461 554959
372145 741321
60311 207382
644600 90746
665037 102445
176330 29306
447727 534927
112644 221202
670727 314184
935706 708452
675134 304556
668050 288059
809471 257529
104852 681049
246589 509895
663656 104493
80441 172543
367480 737282
700468 190863
825549 235299
405553 433592
772077 232339
911358 648039
52602 225947
100932 233253
85203 211001
717528 260516
830237 184726
637067 240811
364708 742901
680227 58373
493027 446494
399477 430507
446605 530082
365163 741536
86121 206545
432178 548220
44978 796529
828332 134518
836603 178685
941438 526973
456838 532173
731125 272073
14552 216233
404998 430527
881178 787269
518214 280645
636800 240372
431598 549112
49621 818344
878893 130510
98558 215749
128816 861871
731861 285411
598913 312596
842018 205911
371177 742596
908688 644164
370109 743392
681163 309780
606509 57123
433231 67636
147484 197766
375085 745675
852543 183390
637597 283028
427093 549555
362331 735753
24833 530149
708960 480736
915603 651307
442082 549051
746992 273859
278749 525643
505994 445422
647912 299095
666552 101322
971018 785004
428594 547098
713749 244763
625328 294988
224490 137674
352144 677531
819355 189575
636764 319812
362044 740313
762625 299317
8391 184673
762758 273590
155366 81258
539053 882893
121574 239916
220924 438701
688498 315495
764933 286499
634372 103083
848536 241652
448725 534549
717075 135598
301595 148705
859387 186530
393163 438853
601309 201722
52971 35766
425930 550175
786504 580541
370879 743699
778651 253052
801241 246849
604204 397163
674824 107804
648635 292757
373638 741650
13725 421169
748232 260894
797892 186071
726654 499870
444974 532915
427301 556097
191444 600858
401190 432767
751384 248743
431603 534147
438720 533095
862085 129889
205650 97706
228246 423167
379063 740075
714028 343343
29756 212874
760674 289123
503495 235601
662976 103417
770173 73706
112100 827078
797349 229501
896899 911636
430728 539969
892560 184896
862098 959265
404068 729897
357563 673095
125763 622069
669938 284757
448288 530619
868134 189176
38043 224584
434849 552682
797709 287788
326360 153036
72471 202109
367960 739358
439395 536259
340059 341490
689267 283886
914299 565152
673862 289540
372439 737760
419169 556791
365133 736459
477301 122104
368615 740151
313290 109950
79417 634175
363353 738708
70878 248249
231527 614543
164595 287587
407914 729931
824963 132593
672773 345657
452264 535754
519210 253478
617446 54825
188434 594024
214475 381888
910934 649282
28873 204402
367999 744715
632613 239148
206828 883732
652461 250926
144379 752745
548371 463748
414987 720635
364099 675068
665455 102718
908870 645181
711604 256102
435612 543808
199644 614073
376243 948462
932385 523478
353663 675064
631227 74821
200396 90561
675253 319159
702301 259445
56899 210212
353511 672522
649676 80790
681782 162257
444990 536463
434511 552319
207497 594544
911750 647395
61127 163114
422960 551741
788832 234224
149512 135001
244205 456597
47377 217809
371693 744200
841513 182962
430155 547034
164410 291183
774022 238124
653490 105166
799481 247337
676204 257859
665138 311712
418443 549366
59036 236722
424320 548828
648238 45936
906898 854960
364846 689631
362052 740558
793169 245174
133062 665310
87525 224535
252079 460108
637946 293663
901760 938568
146729 257604
126132 803223
314244 146271
209332 627429
420383 557211
368280 738649
415674 548012
884058 245403
616840 302262
366394 741787
180297 596987
745566 254929
35542 312839
475909 119090
366729 740011
287945 401938
649075 273986
564973 292644
808884 260302
713957 291350
737602 251903
362319 738416
645075 320177
273188 508847
49936 199781
692087 176886
643667 47510
853115 204263
753596 263129
58101 230953
434131 556394
649435 290138
411039 422930
742249 476921
600345 71380
858735 191900
852779 206581
73475 296546
718500 882333
657140 220350
370396 746690
365853 739744
655973 106145
366257 741493
792525 221672
633125 234774
472841 115497
367675 736151
876898 29660
429745 550865
676415 257151
661922 82962
660450 290540
687744 294968
660877 106595
672272 100745
427521 555118
577885 339941
74650 185616
660322 292961
121077 851357
854889 225077
802383 262577
869477 204072
45949 223875
77643 201656
6872 235784
849325 196504
435949 544054
167012 499497
359908 683993
302018 599339
854437 201822
700256 232440
574830 116838
472113 111207
369364 742901
315520 632771
198779 610720
832264 581406
825758 219669
222537 938610
908935 648282
660740 87425
928710 659202
856084 227512
722640 508588
693136 316089
825661 245874
74440 403217
208089 608050
695475 316026
622942 251017
637274 283941
980592 630739
659349 114861
844196 207769
828299 133424
151734 239815
910309 652460
841748 205652
369900 741005
590306 240170
397274 429442
177418 119778
516766 453914
631162 261704
860843 193986
88283 643425
109390 786951
92033 250323
371021 740617
475465 117312
123659 93069
637185 307845
476242 117440
423864 554167
137837 178342
370488 740406
368584 740285
374427 741589
839143 194634
790932 248920
478278 420848
157730 120773
444941 538681
370364 738294
365722 740245
662085 274914
114719 164374
118045 779713
368230 743278
622435 312577
361527 677390
639487 243716
666343 178109
794744 209701
316350 281712
79123 218608
370485 741557
401037 436597
693178 101068
62665 231467
415488 752998
365875 738275
189671 591764
225613 433693
424265 543769
168955 501854
445309 534604
502786 398137
911525 648859
803614 220975
44288 246761
913528 651984
87113 225011
326527 485514
283992 108986
646831 109531
662855 248077
666772 290319
638349 104655
148071 239087
739947 275121
694832 117420
154477 393223
901695 592313
706432 87953
427306 558462
685158 58811
704422 117353
621634 287918
168158 140530
705395 336334
169298 502647
370144 741989
913908 652870
363526 743339
583192 312603
526352 282452
49110 244834
898554 827711
619158 293821
742233 506806
76573 776790
677437 90360
596989 284706
593306 269740
447429 534522
218084 106798
695704 285874
302405 162666
912289 427656
704395 260848
236645 337555
787808 280261
730703 250741
83810 977098
425510 552398
754854 258133
792458 250752
920411 895102
421133 556611
94951 222231
431044 551344
170657 502667
840768 221743
69341 198464
721337 786433
94707 623206
907569 643668
768129 587039
511594 92502
360714 734355
787548 266005
197343 94866
245418 467269
871764 206711
623472 272774
31933 697650
651460 233659
450662 530105
265557 89132
628352 103764
364620 740531
424008 550294
483756 793883
303174 136150
374977 741975
662553 122057
371451 739669
435808 559121
799415 301684
550968 310399
214948 596797
197320 95558
454980 545016
364666 737804
870614 230301
633986 240302
827315 130409
913921 648581
415712 554861
219026 164886
848991 202125
612430 92859
417748 560614
633690 236363
791594 251127
428142 557362
366983 738705
164403 173420
872046 210731
29196 800904
340922 933035
241357 873179
136031 60019
928185 675549
698746 116212
745739 398712
842064 226710
706294 273614
53118 221374
618236 672952
647764 270227
368798 736928
642218 332541
796276 216109
364538 741186
365561 739825
360976 739172
651710 291234
127610 18542
444364 528479
56144 220877
816865 231049
618887 145236
366966 737687
837044 693475
476141 120079
695691 131208
292478 171397
366050 735008
889633 705465
360179 742257
475076 414053
635362 238694
840488 181484
39424 679759
818853 226444
303678 512573
172440 121078
79203 239244
249706 407216
637231 239454
658350 274673
47141 184922
438190 213431
869967 206687
427984 547536
651395 88116
367645 739951
214877 621978
218394 197741
509152 343283
644177 248991
666572 106952
871798 194182
984199 612491
216495 47956
365471 738995
57487 246456
122106 415475
807314 251977
771611 285163
663039 226840
685403 327146
864530 922278
972142 218921
531394 474879
170388 865814
868939 218931
915397 96978
372681 739318
910784 648963
60682 210522
177137 63313
67135 237315
637873 262966
99454 656053
691083 129674
672411 129577
661205 146847
931067 797424
416550 560675
776485 216479
400839 435110
861543 156746
370465 741098
345439 509040
430794 553147
867311 211260
372765 742808
282115 476319
294406 138934
144435 901282
368433 742443
361787 742568
208458 540189
805360 276732
828034 582747
658151 101680
129628 413959
655867 249115
429067 551862
683771 260251
323241 164841
912633 649192
373609 740417
724383 348150
496255 463834
616834 235578
719951 490367
911512 648565
85803 852376
690459 131303
654529 318335
63209 217431
859505 203632
707225 511957
270529 199974
921345 567753
371176 746573
659424 129215
368613 740939
639168 133788
609313 315128
367648 744975
690880 212797
644350 298336
853234 180220
369233 741534
85920 188621
769599 251112
372075 742105
658761 360550
349941 685086
788284 272817
41393 219186
400838 429599
651207 302988
173864 57758
371853 744119
858481 202793
636703 239378
366487 737157
995923 255968
854129 187530
430525 554357
690878 331441
418878 464948
433200 551592
274824 141977
854727 190923
576864 307456
363657 742010
425405 557589
192670 148113
69313 193893
413747 713961
661609 84022
241157 191988
399184 429724
67739 192887
206765 112325
429286 551616
370560 742168
429006 553747
864953 185194
400120 430827
435553 554981
62268 203227
428353 550710
439910 547615
168947 503669
642445 283220
419573 547500
763035 274993
429777 553080
365543 740415
912583 652077
692107 258462
835369 808472
369383 739680
303176 123596
372090 740665
570895 455333
598752 35770
369047 739136
100634 680732
424015 556296
366963 741887
949807 97114
286619 472726
702907 81432
371400 736386
677787 220830
194367 184639
888680 665862
796246 248560
449758 533958
456384 324335
725207 107034
263957 175588
596848 299497
437535 537963
555632 490564
649552 125114
686474 274272
361254 680884
647754 293747
365703 738245
725753 227180
908894 109044
951252 82384
651454 321830
910953 649340
628336 383868
679375 299120
31088 234070
896098 203060
909593 143645
211744 601653
369582 741543
47610 228318
588670 286231
733766 492600
226892 195415
200011 257909
287813 259770
521324 444987
475139 114625
205628 583521
205421 100467
420993 560018
188270 294760
454710 536347
715988 264256
167854 605697
759070 223269
649457 156449
492483 656239
726454 926031
364054 738931
368038 738755
363101 739445
667426 104494
26983 693508
453892 532773
418209 555728
70369 195874
304613 124262
856134 552928
18871 194936
432462 559013
422074 557454
366315 738590
110503 863947
747381 303972
123161 760798
841175 207051
910799 646025
373909 739519
846155 319069
420635 549812
171120 618050
323150 137769
175401 85606
40587 174383
923508 119262
671162 291861
364475 740232
712534 522863
428855 553915
744839 496560
429956 558723
646638 142992
99801 987225
666532 102056
567727 4248
833673 124724
834571 177040
6895 687496
368350 737605
687742 281521
815006 209090
721277 336731
662795 104630
109337 797179
624027 237514
627008 66370
893951 95177
851846 184832
689071 250550
368510 740743
353161 304477
63334 212496
369555 744015
447984 539449
202920 606298
963511 786538
685087 141547
676348 80681
198873 611825
601248 282075
556561 350279
394830 424372
881716 443188
796847 297214
698557 248243
573442 233317
870651 207362
607922 184857
647733 141228
809385 220441
153573 394301
854157 201019
700638 193406
724010 500200
122918 885141
450248 539953
125482 637829
397897 737534
366952 740445
368457 739197
233119 450877
690555 299924
411785 430932
392387 431619
375548 741727
285024 115220
543684 466395
680420 317771
373318 739468
843122 184483
363758 740040
746256 132445
369375 429800
151410 88508
880698 226477
735605 233155
1245 762814
48374 227347
708920 91953
694809 949508
643315 137886
664812 285975
762865 220240
691024 276332
212420 604174
533313 450522
278245 443545
660439 79616
878775 206941
368110 742184
86589 796451
703883 784565
909023 690475
424120 553870
899743 173586
366022 740790
415800 549627
658573 284543
680844 56344
209437 472154
41519 717330
705535 281002
654436 71925
853853 252459
912580 651707
367336 740211
912534 647702
280775 106446
684218 349006
720106 797264
395774 432461
645729 287111
734794 225549
908797 649956
12147 207763
362989 742317
668633 78611
367683 737973
631649 109837
680870 85074
876130 205881
909181 678106
835098 885177
998674 986719
912620 652133
194103 591231
837949 650131
654186 120147
454233 532841
859205 577158
22687 228631
283676 117376
328793 817268
667193 102626
633078 238044
107750 865217
158168 117047
874474 209663
748924 327246
781635 234870
663816 289314
808744 225259
651288 281125
434682 551407
641135 120255
661337 98475
435856 536397
625418 343587
859874 156357
938507 810800
26545 217492
867993 190552
200927 608390
875672 181273
745968 246518
822697 262494
772857 180391
365384 736487
398554 427950
207884 155216
369345 743588
713357 203722
646556 110381
740895 276507
856574 207828
40696 195728
411672 557850
908957 645611
320387 144377
422673 559028
536423 472173
860882 170199
365143 740767
830717 260657
51437 162999
853897 180257
912857 653969
365838 741628
186726 582584
327603 129545
982690 968737
440811 536073
372061 739334
790580 328275
742387 280586
726213 275520
100104 219409
713339 50806
785585 256490
493518 436367
372156 735916
691261 155230
368174 739079
703758 63548
869419 191136
222092 592246
369704 740340
934784 43277
129740 378247
854232 195171
665384 102037
662655 104612
349741 684161
675055 322536
912532 646555
154480 429461
206966 630724
169468 873421
368063 739168
57211 214318
428538 559944
368805 743072
951896 105715
651382 250204
826602 134466
414888 740795
842787 217439
366270 739965
10378 802985
834471 125649
369282 740247
368087 740649
840543 48858
105206 677152
565786 361393
365874 739552
764111 653028
448135 113422
362979 741741
770217 173495
153642 446749
647588 104720
733663 92203
747790 818016
734345 495933
963708 695213
441812 546440
213516 412879
370828 738742
536581 475652
672247 293434
212816 600791
745138 222063
158325 111047
363086 743836
546611 459120
638722 240897
171975 144349
829516 125784
959593 501021
63422 206277
449351 534753
410361 556699
624014 285545
391111 424041
305911 164115
910831 647615
730361 270792
745415 220021
473401 107570
825136 296844
699669 575233
823125 243336
167676 502011
238225 493617
383927 716744
916210 597558
368687 739586
357877 687108
722972 481900
397392 430104
692228 290026
738612 496377
371226 744623
797073 341702
368703 742968
321601 150126
193825 98611
419393 551400
671431 238289
705186 359181
217465 608068
197896 583842
733127 274181
361993 674849
1243 466283
113885 828291
664204 107754
436404 555708
425108 562408
839036 791249
141198 394196
371424 743517
431738 549258
890071 271094
143141 280756
666149 285391
492497 947015
115685 410800
908641 647758
60008 197103
581424 230431
360662 736456
664778 85472
888098 97619
773950 216545
680062 274342
37417 219065
713094 293956
196219 594483
662665 106515
302424 147823
88566 204875
799830 528498
793811 986635
398823 432094
585475 293693
298376 140152
525093 304628
637493 301280
93055 594294
639340 112122
423073 557037
720221 304401
731905 295729
682676 109613
408941 432113
902561 894236
334328 307642
301386 169225
408723 696754
430790 536742
966467 557950
851450 184188
397079 430360
218742 618548
655843 290326
880528 928739
328540 488893
852162 215334
276584 402981
305065 426050
472722 113354
717892 92613
373666 739221
184387 192858
688586 43178
453975 530538
533026 274511
60119 760507
348763 679987
56397 251146
646005 125554
831715 221029
649512 82219
440633 550815
366466 744757
415946 561183
373580 737814
782658 695200
911489 600083
426554 549846
714320 125973
687087 152015
373314 739904
256589 187932
971941 715830
369594 743662
370548 736349
643138 246838
856279 213278
726973 323313
364573 740337
89372 206929
252400 475562
842556 237904
59746 215873
371348 741272
147671 69455
555056 609423
364291 738529
804270 251788
139502 83629
231292 465687
276728 135943
659085 7276
585637 360437
677902 296516
863109 200428
514822 792346
913142 129606
19923 231191
427517 553615
367021 742391
560252 325519
52272 194817
663269 89155
25784 229427
120615 830122
843537 229771
100174 251277
589596 872652
25599 251587
565109 280896
871713 198992
370642 739835
669988 781441
896520 202956
699858 263298
839045 252985
721478 46494
72079 815508
871962 597142
168989 502903
206680 609080
117563 376988
430539 548502
717428 101833
209971 95749
911265 651625
226105 422097
367023 742432
35089 269941
48681 188611
632022 266582
406142 737424
722805 273022
911043 650918
518068 444656
408933 429468
203494 88671
840861 266891
503092 526715
659417 104692
690214 66663
427313 548187
912351 648728
697371 304819
280002 501704
370806 744243
364835 741050
446579 533676
230413 513923
806820 226036
674039 328382
367452 741320
376507 736750
110093 256234
912697 650650
442700 540996
632730 236808
429329 551338
372359 743537
665737 197000
578169 322889
767298 110991
722309 231998
812997 251418
910664 651482
441591 533285
365948 740527
657895 106215
263758 154344
421969 558744
848102 212245
709725 315293
355879 674466
615692 210379
169558 502897
24220 833369
370173 742022
734073 305184
825673 131400
440515 20870
119241 645220
751375 307974
197157 746419
802342 238690
34200 193125
737003 262456
304763 359866
402411 437174
274282 486587
271003 150544
414736 737639
167156 118082
837458 225870
294597 130993
855901 220516
630773 239645
911747 649800
652366 99566
694475 308853
160627 401285
649677 331619
671884 109707
364231 741987
893071 90424
868330 150959
372840 741313
706153 296599
687798 287816
337073 786707
168595 503200
673655 255386
627685 313438
169046 500762
863229 201134
657818 106526
939128 703198
275568 135684
615243 289514
119299 133777
178984 891698
914266 650567
170838 504429
678234 270280
693946 271724
67063 204022
671556 88420
273678 532577
664426 106514
670555 104015
90248 691753
978796 67921
194442 90161
373572 741257
431535 555892
177903 71915
258822 114813
859985 215256
75525 179959
907881 644652
373900 741614
152975 412001
34223 141020
606238 278889
820603 236468
656902 286112
236040 59277
438418 555435
860465 124261
720145 273538
347820 681539
729247 231133
637860 241710
706076 295758
372227 741856
51379 228412
165959 401523
101978 838603
370497 737817
824417 131838
786588 259238
873000 592742
824912 226667
431466 557964
33319 234775
722760 263862
500316 437739
870156 220137
246015 142352
132554 143114
201474 93958
424990 548075
716804 498137
650310 80534
901289 132413
851775 174581
852954 226159
590323 191399
314268 519900
371188 742225
840709 246304
408253 562281
735140 285143
520508 471101
939238 658597
839860 246459
433979 552710
328974 136376
671390 281816
588923 325890
540514 443459
681506 117931
661691 108515
401025 556485
865699 522715
509098 618835
369324 738598
427896 555790
637413 241269
87467 686166
698170 217120
956277 681644
193018 647354
210173 67052
910393 547874
192169 589606
510520 349366
924352 123878
962853 623711
960901 710956
76828 197778
458966 536480
761339 241204
660296 254766
367792 743780
846087 220537
421803 557145
168297 504261
912827 650658
852437 215531
633685 329147
367629 739111
206191 30615
661698 111568
42054 259068
537715 453213
174524 548809
767571 189689
365929 738156
736988 258271
253905 454267
194017 597694
696637 293573
368313 738248
370437 743961
39142 208031
429879 550996
593639 343776
888289 226780
373479 739167
419172 551792
694978 256045
243850 432318
370095 736706
911407 649420
425507 552426
368057 739788
432422 552956
165734 835373
648194 306288
107531 629624
688128 165050
110840 850675
837444 245273
365835 738806
658053 281641
768353 274947
42947 247347
625528 225528
415861 551077
395312 427344
57025 203900
238544 80926
62224 193434
170836 597446
139763 680265
370335 741899
437640 557531
377473 738940
365876 736221
788446 295398
866923 198143
85013 834031
207429 72152
862067 247909
672317 291974
713466 258270
195311 86670
108430 226931
469432 108040
105708 212260
439452 552438
254484 480080
364343 735178
870082 205710
373906 740440
425669 553436
397778 432612
832758 244853
851816 220343
637810 241659
441953 404453
424050 546560
406660 718823
308247 164799
172353 712985
103516 226734
28393 235716
696561 70222
588733 339635
742346 215793
716670 211523
219612 603882
696535 124094
954450 754502
214199 90396
72021 248177
671160 111574
919228 630631
684086 272509
660437 104965
363577 742762
727039 295262
868666 225916
369890 742288
682268 300364
181449 599234
205749 404590
825809 235394
697135 305816
113284 429486
298767 129114
822956 248664
166414 142460
362076 738329
852003 203624
486137 460093
704989 213172
372160 736593
415949 553801
509791 462274
663449 286399
366873 740230
706410 251312
367177 737163
74528 213818
364868 738279
102142 270761
128633 633768
728136 292522
850067 208252
540512 449636
474400 113674
367489 737674
830721 409193
902433 678852
726659 302682
621104 290783
855312 942145
876876 192505
376796 740305
656201 54297
370234 743425
721500 286292
198141 94259
386081 136093
901103 178447
66910 412126
452285 534897
294873 114833
651479 104565
682438 116166
476938 116992
636001 241186
935884 588721
439135 538315
637448 96228
502074 303825
855175 206865
631871 349328
100586 221357
389415 906377
672822 94379
371443 739854
853948 214301
401153 427181
638133 263051
837666 173432
553883 454169
665980 106610
844832 191935
369769 737989
117039 143784
577530 489758
208312 94408
893824 588713
474556 113826
856327 227995
886793 675150
639063 227011
920999 312581
660010 104347
117090 214023
434123 552870
683005 298845
734451 219688
371252 738403
367927 742764
608757 134091
367301 742604
830976 126027
362784 675234
816843 243137
963470 489194
993135 648663
715757 176365
879412 203466
423574 545046
638568 241189
710099 271326
296355 107464
619840 301674
125545 891816
855302 516608
701294 26102
686286 301744
858097 249386
627890 401568
879676 847209
606994 82177
726654 469759
763538 264866
356085 690657
867341 204413
701957 479559
851931 510427
44568 876362
662837 104671
768604 273390
328501 141621
824141 258951
423238 556884
635423 238323
516480 452003
132343 668564
437398 531755
728443 212085
759261 307112
654203 262037
693508 125771
910841 649405
145731 138707
367932 740084
367389 741086
47554 163186
854288 618256
170296 504583
399555 438097
273204 494513
721634 263056
365263 741848
739231 200360
323609 146081
204256 604687
368196 740634
449404 536433
960391 630016
918297 139994
137087 702101
399734 435103
553090 968485
369971 741054
652333 86822
145584 81699
646664 58075
877211 620373
938959 813437
675011 300626
683609 228614
640635 297394
424019 557315
872470 833961
199451 94088
875533 202624
424480 558843
174156 628574
698561 297738
567290 277679
540401 280941
898562 28625
660906 103103
662157 104414
83751 214636
516875 234382
776908 277515
44944 870075
727527 29180
565000 454471
639459 240998
865921 191605
373244 739707
660438 102920
674008 97919
593553 261335
979583 533736
364502 741714
825924 220936
688325 313630
703078 275838
688908 138902
130269 391011
433109 555373
463111 690815
689144 236455
369486 743563
315818 388266
515503 91631
423473 550118
114900 854400
712022 232619
370789 743074
52944 249560
441908 556063
825927 131628
91068 32877
183479 24730
206583 450031
266605 175753
514208 438686
114553 398880
860143 113528
744146 236213
205979 142633
421678 550133
729464 272050
296767 110116
90430 680049
362107 738158
711391 329464
215327 596552
892331 215014
60676 215670
770319 187170
838715 211927
220379 168894
345928 123813
409253 714383
823466 132082
65499 205174
48556 254489
644172 123095
669559 310222
433902 552602
354777 684552
661369 100630
441605 533207
730578 497391
366116 740884
656024 79745
612629 905199
287859 159857
368408 741701
925348 660697
364345 742525
715382 273002
149021 147857
849119 886585
682047 261958
518463 472080
291391 139286
913150 650716
799372 286367
627278 225423
57906 174480
725882 475360
834808 251697
168352 126231
198637 593732
364879 734191
608705 238782
201059 93276
663962 281819
403479 431438
309412 164786
715816 85611
204222 609205
40066 215436
871558 123463
859854 204904
121937 640736
780935 288142
787443 260020
368493 738120
450199 533695
802800 212445
913523 649803
783731 232601
687660 298734
73789 832224
132004 632703
396931 424308
900348 868710
590250 101310
678345 97680
422411 554465
682119 223114
200502 991818
669375 100990
729343 174214
369615 738560
294917 488039
725700 302905
239455 476543
831760 261310
168933 502881
368632 744230
427406 544287
640184 280153
746034 249718
423461 561021
638838 240220
400319 434665
373894 738396
864632 197792
433202 555434
397726 270310
654563 234633
910692 644915
195401 120986
49364 237763
364730 735597
949006 669412
599149 40625
737344 256792
300918 147166
370442 738633
112561 828982
699100 216793
729362 784315
450278 541094
374083 739541
606485 281371
368700 742188
364928 738987
661484 256498
879672 188990
442688 532702
685876 280436
731232 495564
646901 89495
899976 538788
74422 207169
362975 688217
370470 741804
738267 262237
449824 537109
167551 172206
826106 242924
639972 242113
825744 136971
627704 147432
665813 281176
726455 252705
670502 514568
911438 651593
369942 741343
390171 742048
605232 342694
269196 113087
370088 742625
699331 123795
422202 552343
659906 288522
845727 186530
697158 97273
911403 652789
369238 740580
912211 648604
688395 281768
897168 331798
683044 261043
422782 554010
365581 739726
291468 183678
683504 203372
943621 96800
443599 532409
158212 493195
783948 295716
396021 743436
901073 302547
427705 551264
397971 719046
883667 635509
495615 446794
860355 666474
834609 192451
442962 472856
743290 336072
302801 132326
361615 738191
701671 242364
479799 471921
551697 437223
885011 199504
793732 227166
844818 205588
911254 651599
644038 134038
370533 740158
611767 276501
362415 738810
366495 743097
659065 96819
439514 550239
644889 122909
641586 305413
636684 241205
825183 133565
296526 37067
206753 612912
67218 808172
402607 433775
328389 438635
62128 674714
425099 554188
366128 738106
357856 684848
375007 743431
365799 739707
44446 248811
243409 153457
683931 220908
692969 256962
807176 442368
668698 315874
853402 234677
179359 120542
232393 228285
438667 533459
778433 277781
110442 664169
421454 555053
711960 127816
740939 317805
880496 197340
235681 604258
760781 310317
371819 743706
683432 337799
170742 145832
403935 428611
910461 651981
611902 308355
913422 646337
666334 218259
433888 535071
862144 660958
187673 589554
83082 841717
365359 738822
671218 270080
684164 219308
853978 869111
120280 124547
478026 120941
429988 563114
95518 647449
364768 736385
209828 591737
372746 743371
420819 556820
704129 272847
86647 211416
825962 133809
518481 438958
769218 240308
762858 271709
143198 425700
365316 738197
392793 853530
628177 18442
369645 743103
682932 117520
483014 466427
739815 225142
836661 188692
621115 292597
626489 229770
153386 894079
38527 208408
637479 239532
539312 935832
366364 743332
63341 893141
778461 223292
477602 119773
130540 465491
741397 194132
683742 221992
984656 32389
312266 119518
167734 116561
885113 146919
369231 742772
176726 264205
319155 141670
683437 105532
167183 501190
370181 734689
659011 108862
403010 428755
369284 741297
228763 187841
367882 745114
271234 144605
204523 59116
167849 502472
352952 297379
424206 554493
701495 316808
839374 177739
614420 57722
414295 556381
863982 199910
874539 624800
602335 93810
725532 261421
367239 738968
753036 266077
694280 597483
689306 116577
364039 739451
405523 436445
811695 270117
933173 949279
105151 239826
710612 247165
717173 259363
427195 557137
196628 96542
159122 122663
396530 434806
402257 425048
131465 114066
436496 535065
78172 247320
889135 220512
775071 287004
984897 63270
432791 549962
164517 124898
84327 169057
725570 491916
227374 366380
368530 740655
400136 435488
108345 834217
42607 237951
738274 152508
166792 65955
371064 744262
202462 667768
684550 55574
727851 249568
367717 737065
738236 39051
827127 130333
635056 65793
369485 740323
632312 278781
893424 822166
365871 739624
735737 510958
218850 609804
720681 198723
668178 125985
366725 741819
177671 46767
850390 629897
39751 192529
612875 297800
409690 727696
668068 285553
942759 582467
573679 421694
365936 741174
368400 741986
163199 411278
866277 188261
439819 554185
251449 203092
474756 114193
434519 550123
644725 112435
747225 247510
754238 360395
610614 225316
654453 106106
416726 547888
475550 118812
36232 187100
660104 882772
373225 736885
142826 649991
416269 545526
374679 738116
451146 604556
876459 188687
150055 685245
875323 708024
648880 288483
861332 193602
731054 299072
373478 742108
422814 550761
169057 502421
21164 172541
369031 743986
791830 239754
450891 375252
72536 205637
254878 839730
543724 472757
365039 738752
372474 741338
798509 256630
129168 532524
260546 452369
859064 192012
417902 558617
685864 302203
459264 225685
910551 650650
403096 436531
372864 739159
187858 537380
200582 446036
834258 201953
137989 639463
677089 260153
81947 191531
368188 739340
908631 648555
837820 197185
657825 92150
431771 541241
637317 240134
657635 113356
368497 738020
148153 421543
190363 519555
375046 740289
373204 741701
66993 209904
372048 741497
208120 596535
202286 95312
727442 860938
623237 229015
841134 198974
261184 457515
66416 214076
650023 307720
437765 549454
783689 189904
97219 364167
916629 692224
769631 252614
207157 347286
195482 88305
369629 738106
25297 225574
74896 430838
374025 741541
127059 64072
92775 689839
793619 268038
76764 228438
366677 741042
797441 262142
424658 548568
55177 230719
434133 560540
617486 113285
613811 86597
639450 92039
439002 533091
736133 241332
432696 551722
742641 236167
804650 241215
143167 681682
719485 228609
750547 259659
706835 283835
363875 737815
918868 641634
908811 649005
19694 225483
262268 390939
786066 234187
662734 104512
833603 129563
912622 597701
971463 119602
374563 743608
194894 593362
712271 258184
749211 271902
830330 125271
376589 741511
169037 501628
638965 227079
731547 503030
861358 500394
435883 549617
366062 741226
659881 126646
29570 932790
400562 743640
918812 878716
367403 743653
354562 682796
435085 546564
728275 496298
319937 144530
733143 259748
922000 624694
837304 164591
569558 279816
47768 222119
617637 75278
859431 202533
397319 421924
448703 881913
165987 152750
727416 484470
703155 259851
602400 267650
366002 741028
352862 287060
393437 745209
412436 549642
221097 606208
92462 213224
697815 285546
475889 119115
113525 451435
364937 738668
262279 456885
742534 107945
107460 13418
735911 347476
939203 775930
627446 262691
747659 262708
435685 552091
855584 211038
163505 812723
921930 134097
66658 241510
745863 466930
406652 428536
510505 431657
200947 91517
144682 651230
288936 490196
720001 743679
667055 330760
913551 651483
719674 297031
669795 94481
727868 261134
641411 276571
914972 653409
366759 737671
662512 280745
370770 738024
729555 243888
666136 81831
155649 157699
865514 590855
376453 728766
602163 331917
644308 284729
307971 269900
159104 125533
434753 543869
838068 199779
82797 609909
454413 532297
257490 114883
369956 740246
715714 112328
422077 547830
286298 154075
89263 172216
834362 487622
666205 280549
204648 596138
429603 551527
165551 74519
371527 740871
365295 737635
372627 744395
370706 742221
424789 556995
40442 227449
735891 483749
814244 241930
315216 201732
367503 739845
635057 240469
111585 860570
370582 745176
61906 702841
570272 715736
691922 112170
915394 655467
680680 123623
184086 583619
339203 443379
429433 563758
673330 227508
116454 648270
425567 555796
232396 377306
658066 100790
868847 184603
369585 740850
407763 192052
634521 39665
868602 226417
368986 738522
13628 435986
937845 683981
68463 200788
603044 78208
659419 207059
322090 123870
369904 741736
497566 949036
44191 245894
433954 558116
162134 83899
471611 107719
433912 552638
47502 209221
164205 218300
426005 548546
481510 452023
263744 483482
837271 199366
368598 745572
44195 195587
559270 276187
770262 317643
686532 132721
372192 740294
749430 384761
683144 117977
293531 172401
189288 617909
813914 237648
836021 912218
373811 743311
367327 740222
226058 425055
369063 740472
741499 493760
709018 80009
361824 734334
349812 675052
631673 64259
867367 625319
590551 239061
438099 534381
262352 397257
101393 44490
530807 436366
929123 107947
534951 230523
368186 740896
22059 735792
678831 94404
368945 743797
360863 682069
842097 259090
911371 649170
620935 262771
116724 972056
168469 503156
103082 853832
369053 742904
849775 172930
694189 323673
217647 136089
447274 533685
845811 207652
582888 285353
753011 951405
594355 486068
522503 365883
688103 297121
853160 945264
713228 353670
77970 245800
199945 91276
394455 771481
398029 431565
803735 244830
397938 429512
428493 560268
658757 138382
693287 119679
748856 230940
312181 464108
860634 202660
436978 560780
402395 737291
371296 741315
370948 741866
366852 742007
373895 742069
425503 551721
289158 142480
431454 549086
738858 245785
363440 742199
306432 345953
670410 146426
453089 533792
634429 238326
182397 167475
974919 400635
649131 263853
913170 149891
633092 237713
131379 797306
640616 247425
453496 534862
784415 485985
609668 295517
887748 190115
825072 196831
872898 189208
277380 484873
475516 117847
820923 228890
307554 173865
259324 145444
724249 381219
679531 289165
745367 237791
182396 60151
364250 744380
396652 429566
169566 499329
367176 738928
794928 553732
273086 438508
872250 500632
633231 136174
120355 869897
846411 223273
634208 483174
32446 182163
422378 547171
840487 208350
148379 998684
826750 131531
735524 175775
912755 649355
645651 111303
371160 738446
372833 742529
66660 216851
637121 235165
697932 131641
758568 281169
473643 135
851287 224314
705065 346336
721940 90552
368852 743888
829453 225687
510175 421149
426550 550923
426470 554763
858496 196495
365091 739858
639095 241608
376238 736407
818295 236355
370687 739299
368791 741069
425522 551492
648766 279502
658854 272642
766090 247978
753121 329805
644858 322100
794009 196710
625301 268585
731192 478490
105297 848430
563494 34251
34967 231984
525190 74788
369980 746229
651204 338863
424747 554090
416890 557626
59253 198684
715562 164378
366463 740499
284768 159162
198325 96817
632595 108076
368427 740935
194707 599356
107017 602680
373704 737216
438131 545183
845710 256403
291678 121520
761365 689652
397706 433210
642958 563131
292210 454949
139692 807231
432356 555331
196960 85673
805589 274876
400987 741284
83350 223399
857722 597155
235155 478083
364856 740954
696584 124783
399060 719920
536900 443880
854353 186348
661925 310744
829043 131780
829207 128081
912521 699686
663501 109994
79901 602082
140541 686576
822387 317300
544626 454747
224458 522950
368236 742328
80598 843766
642936 288537
598838 55017
121744 832939
491843 458496
668234 274706
44533 223926
644198 358205
290162 129127
371645 738991
697067 202145
690277 274890
50542 849468
657519 224416
632108 68559
824355 249026
192007 615062
426952 559620
238344 629074
443891 531711
434697 560247
576414 314404
844665 220573
635663 97058
791073 312840
683701 239104
633616 40401
316401 486384
885317 182924
703325 266084
427104 560833
660823 105841
495916 452864
725555 298002
104447 648987
85296 228497
944372 961255
664819 301781
374733 741616
911378 650038
252021 501274
723778 252859
710571 252434
369385 737450
507258 95573
655319 290536
908514 651078
168287 501178
413023 549988
124043 680284
352744 689896
182434 627916
169697 503111
201205 176011
670142 211424
680227 289481
43032 242204
945741 718024
733452 484440
629594 257976
798060 234195
353983 679384
368696 741511
371192 742587
233861 377217
710583 300511
287111 144152
901269 735000
781797 316977
104455 319257
698193 96728
904559 421273
91415 839651
31395 223767
350438 139699
427799 546364
687395 256055
369925 739874
821231 201464
30855 206358
409795 708016
820566 200321
910723 647344
155421 29721
448240 548657
507955 468987
723941 481448
677855 283451
425264 567076
558992 469020
676239 103024
782145 57546
146343 178735
423724 724698
477200 118445
366133 740701
369167 747198
799643 262556
361848 743287
507888 413369
363997 740571
103537 256525
50091 248032
400311 434254
54809 215035
368076 742595
450697 534346
179620 427929
357874 293468
52962 201880
196760 95699
371602 737550
71824 226627
366148 736480
363198 741357
170363 501181
692305 11426
366820 741390
141111 197627
27 836152
73402 208001
364923 741228
93662 203451
410953 552857
625354 202735
688475 305509
240273 225397
39081 173125
713212 303729
614298 40908
756660 234745
511326 892636
857786 655008
74031 222867
418235 257241
692962 223872
704531 252335
67406 238902
412011 556559
910697 651408
854546 213286
371883 737361
240586 606424
612832 109126
662565 105871
676409 262888
46987 206503
667132 229463
818492 236478
858040 207619
678222 93387
394925 432896
673877 284461
307314 117556
402327 436042
826408 133331
182005 203824
823358 228162
851233 187202
444731 531441
362494 740994
742429 225871
205569 410588
369048 741346
367835 737485
710472 279717
593384 473044
367099 741916
478622 422548
245374 82372
61345 682602
692254 340907
771394 239101
896977 897177
365730 740023
168819 502830
525427 897210
944326 922349
664841 104128
120129 229980
60628 207569
169385 503455
18451 609126
365739 738940
841968 209268
841851 680703
405704 435289
617140 241413
280456 119715
735225 265617
367574 738203
785312 235439
862557 208685
813219 267734
368442 742858
497034 628720
58849 220198
640859 339613
183374 194356
659049 145204
810227 182220
363310 738351
638377 265564
652414 338752
666570 108803
144030 131871
939864 502833
476172 117111
669678 105997
716548 172107
908219 648030
672941 258101
646595 268686
366674 738019
250711 118253
843531 213601
363387 741095
363812 741655
684901 300303
356048 683893
828484 225361
219876 90853
97385 213236
222285 609286
344270 115999
659788 282984
207335 98580
402783 708604
423823 549303
2994 243504
187372 123025
368309 743915
364195 741210
356601 687279
672286 330812
371849 737652
367682 741187
169842 501626
720244 194893
602115 281058
650841 277866
438189 543859
367841 744381
690303 123782
828491 255771
426721 549261
630913 337893
812018 299013
166882 206170
664743 86197
494557 427327
674691 282158
369236 739816
909487 646965
367086 744198
650675 281556
661897 293278
932797 631802
571049 997014
681369 296587
736622 230503
854336 192664
827740 133464
670504 297233
412675 558173
822526 134475
365517 737163
363551 741571
196021 596181
5487 824131
432983 530453
504929 447294
855310 194808
116955 844306
912702 635823
731629 240017
739960 268017
67783 227991
645878 119548
478988 120991
7895 220971
418085 551332
426067 555637
876407 614077
365831 153250
127241 373720
109836 707084
782790 777798
133677 146430
800133 238850
839638 204150
669894 104156
843478 196365
662052 105391
696972 295691
876843 795402
635357 254077
368507 741755
371189 744502
738280 249385
833599 235207
832733 240134
948299 80078
827169 232818
863288 475257
845426 220552
371550 742888
206960 584013
450178 531309
660559 91730
809647 228196
858913 170330
538875 511656
698418 327510
202091 599412
198508 93983
718711 218672
697604 315997
405033 428762
40214 199801
671734 287591
172239 66885
366102 738039
150146 681438
593374 475104
60344 215564
227417 475071
548586 233749
213122 160953
814036 226477
214525 592984
108672 401249
636027 340749
369893 735539
163908 151235
369326 740592
361770 739907
710077 266977
636757 239330
627943 219761
640962 251242
907232 645892
362991 738959
841512 677775
366975 739299
392642 477652
130166 175902
704421 280244
65935 206753
60131 629412
694211 213144
367680 738766
652598 125759
705355 74347
832320 240599
627679 325650
828183 133607
699936 230592
828456 219582
79744 249535
853435 202415
203891 511217
684507 341805
368684 739888
73333 821084
736256 191371
676099 281733
617176 284679
751351 287385
146531 150401
731542 277742
364363 737116
659333 281033
363860 745263
198784 94063
667083 283310
397562 425182
690807 256315
802318 338223
477439 118856
38975 228173
777561 272036
403024 430280
714853 83252
187881 880268
364235 736241
859412 203065
631369 112498
769724 238575
424316 550245
365504 742256
392664 743268
738421 250419
842106 210099
366438 739025
362213 742876
181049 161175
513872 456545
776382 249633
445678 537567
71678 231245
296146 195660
376318 745140
834555 184350
45312 233875
670607 64163
439210 532861
426084 549362
390286 790703
638545 243324
167519 156089
398927 432868
671252 328800
54285 231326
372817 743907
851616 898757
679451 118195
717745 268136
83539 420945
652731 340439
394041 424062
841425 581872
780753 19942
367212 740088
760841 261892
697072 322004
366705 743632
558261 266377
136743 78171
287669 160391
260896 297893
737103 500243
47787 224101
36010 229360
683570 275222
872791 537204
353895 681099
30456 218955
394369 431626
401256 427196
445135 534972
760218 321370
910599 647520
665523 100210
204641 100584
859706 201968
131967 645999
753904 313301
647620 283132
952798 625774
690285 294168
218931 133751
669366 288826
825334 133438
367682 740483
106864 162109
546746 452570
107093 723699
282069 139303
800695 221799
740352 487070
372049 737990
470573 108458
176602 135545
361701 742537
300886 961868
362402 682676
670717 306883
266459 463496
361113 744756
669080 104961
64596 219800
746263 322918
687420 285031
636465 237835
409665 430186
583315 295396
597831 269828
586902 74116
70003 212289
367535 740583
770045 258358
428249 99529
110698 704486
667628 107453
230355 507239
949926 651297
70346 171402
33498 226865
910298 645529
364055 740310
191260 405208
910939 137445
636295 238085
436315 554317
162769 362966
366377 740145
424293 558202
700139 343901
711273 18583
688034 304949
406385 428645
372673 741328
64103 226310
675773 340828
358413 745480
192570 605871
189391 605383
295776 173043
804014 226869
367389 739595
636503 240360
276309 168955
623286 290777
879064 102454
236069 443511
210589 598702
983824 85069
657381 290405
285769 682706
61999 179605
363198 738013
678409 56675
667715 106068
265580 176053
629371 987225
201774 308200
861169 201889
830608 129041
829721 128847
837647 615247
279054 162490
829917 134861
440825 533104
220152 610866
544453 461063
648143 116287
405687 430271
930424 923634
370173 740064
371117 738430
519492 463512
637688 241299
665436 239279
930742 878912
422876 553812
370645 738790
602929 273776
250850 427031
33058 782987
225166 197908
909801 648562
303191 149421
437308 552466
368041 742466
804903 231140
609622 289625
129761 94637
370290 738618
659734 288141
586220 286475
118995 653837
819080 228151
310979 536606
668647 286156
364531 745415
791651 239963
485810 113360
36152 185316
368770 741825
181410 879598
217710 174104
82571 226841
705873 104894
298149 935127
361537 738989
365534 746591
828213 132562
404875 427964
166661 399317
367089 739431
660616 25562
371246 742001
912818 649029
652751 295440
772433 313617
793156 239565
637319 238100
104744 216062
77349 218489
307207 156618
545574 616006
112398 222728
897844 144929
665242 287522
948793 258803
119333 633475
301307 110584
422804 554077
843588 211728
69958 220995
86616 917554
709527 265595
668582 102405
69835 223243
934392 93574
400774 319673
61736 233070
201852 93267
424829 554615
127362 88253
436188 350668
363420 738847
125502 869321
365679 742916
619892 303477
639899 80046
672591 289396
687067 138506
284172 147256
311734 339947
446457 534254
354815 680800
745931 171177
710118 331839
637516 236760
915045 117437
640475 243458
361536 744070
334608 464963
152092 359235
352037 682004
704369 665480
358684 679410
39749 183339
540052 507233
828902 235227
511594 719168
366705 745180
430209 547864
666370 154142
648690 321657
428067 559389
633068 231695
197013 86474
702450 234637
424778 559720
625196 307808
288639 177747
331663 78887
562084 17284
657043 62284
369683 740247
39445 181821
472377 110642
206588 96052
870392 870820
640864 295720
369381 742640
430444 548953
300500 429128
667467 296190
444468 530317
651237 270425
197962 605211
366482 742242
366794 744082
402889 426432
692039 289987
193258 73758
858640 711942
223057 598290
346060 682351
416762 556635
724599 498088
837172 235855
369165 739605
397571 424523
909185 648375
52067 238826
663977 283550
72611 237731
912326 652843
926752 394720
86886 206305
266741 135129
821641 850008
474887 115400
204400 94215
249830 153729
450370 530334
355406 533117
366422 739177
203703 108562
190540 89617
675000 453257
440526 554146
612700 79870
89691 634356
801759 224215
425000 547240
745545 263059
161651 474755
680212 308862
360239 682632
306259 494068
379084 738936
286863 208786
644319 294886
832069 207338
678280 311055
121058 862517
910500 646868
649823 335321
208102 435220
368952 741114
471581 780805
740276 251869
36910 617521
369444 737527
559620 359826
398308 429778
707865 306055
371836 738966
888230 202067
412848 727552
247401 455742
62865 231681
635984 241107
65535 117492
211252 859729
144698 686083
828776 134280
779424 252836
644269 75920
52853 919216
984591 796006
399089 724501
390181 739401
656473 315473
831556 243835
693535 728173
603321 142363
222902 597557
163212 608773
407682 556922
360487 743220
150599 666063
713398 266341
426295 553208
134197 125153
705802 259045
93473 841232
58796 690544
660006 101178
648473 289134
762749 276663
745744 483735
169281 503484
361308 686119
366815 740953
324678 165366
541497 498182
416133 554427
422999 547046
437204 536984
49449 240792
912425 649886
369652 738777
497581 455763
736847 292011
520832 150611
525503 444816
372123 743279
836084 209935
403179 727950
419044 543655
643429 275826
854438 174449
716013 267891
89476 849234
369668 742363
247135 929042
82326 71349
426336 552507
359216 677822
759762 233248
58465 203818
371198 738971
890770 624206
118860 821751
359753 739233
88629 258119
402550 431331
728789 486677
701892 208027
734218 79001
368260 738470
197526 580291
368450 736851
46162 258337
667767 299390
747310 203737
204761 619549
34777 765385
675768 115447
87701 240553
874794 185749
645786 257208
427292 549578
169198 501678
281557 122496
633284 294054
364496 737476
102052 220505
883726 196297
64343 218061
648282 232899
816924 201198
492749 451458
153658 128551
918751 103892
107320 226713
190642 593769
758445 243528
369644 737861
859764 216468
409194 544810
834830 248994
103382 761158
400736 428340
38042 208605
367948 741336
365452 737518
432895 550262
289009 482579
85135 175030
100389 148321
768950 217183
367632 737459
140726 92259
325036 155644
829814 127629
733685 83347
912721 646303
366754 745350
400812 433185
300810 372341
672497 120226
362829 153027
925315 611924
367532 736828
879013 186285
653685 120452
658431 104275
690379 239845
374539 742859
692704 301998
913036 557350
366048 739508
561379 454022
419490 545627
991580 16735
653618 250453
190342 230299
607148 265993
73547 229569
787065 234664
155097 401666
551140 305166
703164 307011
207138 103716
761814 261038
743360 245846
422776 552454
401282 431090
365551 745947
695805 265166
420026 553200
622076 220424
998500 556515
87590 195951
179664 892696
63385 185025
683697 8995
657506 339041
674881 292712
642183 210717
75342 222364
129793 400439
401125 426382
773006 246051
431532 554003
45662 228554
725164 366881
628947 122547
857058 217206
534106 405894
49692 213528
268632 163010
400964 429979
681790 288675
27598 211647
51374 230186
367624 744559
173867 846780
624306 70851
174649 209146
363013 740571
284689 142013
773216 223783
564583 302097
838868 198739
258845 934348
665556 106636
848214 192747
83101 245050
419711 554944
713505 233537
683089 264778
720366 293718
448191 552005
591501 93249
789444 173026
851868 161049
237505 496254
606223 325971
770413 251497
43731 840223
716658 246231
205671 628826
423788 559148
902371 641553
662416 107900
361620 737201
771962 247276
760426 281439
836668 204072
643356 262621
643221 309135
727908 86368
858387 191823
610957 334424
168180 502239
682513 87102
369980 740902
913741 874752
372821 738846
806906 476461
53474 228721
560451 462772
173252 579493
428941 547432
705385 137584
455668 534519
989758 66932
789354 298182
170839 503757
629469 85233
737205 292499
543546 486385
205681 594769
825735 576628
403330 428380
847809 216113
911227 649572
676966 170486
211156 597035
662258 108307
128853 743429
369708 741351
430639 556204
913328 646671
684678 308406
37137 238582
221228 619405
94631 829213
205382 579132
54993 198929
474731 114846
906871 99576
86833 187550
398464 427304
441911 534303
356285 677244
141759 872861
370917 432736
653024 320648
624624 254228
199518 414081
613000 77086
96942 677461
419217 556394
478606 199099
312875 486178
144075 418117
145748 473941
915073 652621
370551 741950
992102 800316
309649 434115
36269 203071
815151 240533
911471 648213
424382 551670
747893 232838
120296 657529
373622 744152
663687 103275
706021 246461
370576 744464
310002 169280
902526 118098
632424 357691
543085 456459
370810 740019
439845 94212
99486 219460
664458 99962
736645 496812
732955 348697
643365 280055
407761 725196
699138 270995
317009 150460
357283 679258
74908 712828
714348 204695
404265 740040
205103 587458
205701 113319
371035 740858
665613 102515
639775 118191
748074 120971
550099 312063
433274 550605
428449 555337
366776 741475
851538 242188
287299 148847
197085 591292
790422 258709
363648 738118
627783 251485
862306 189888
669563 283254
927015 926683
851516 209029
156998 89420
192456 598419
168435 500521
284602 400222
370031 740152
34666 212305
796750 296845
199191 834769
640813 243015
617582 328661
147250 80672
953332 705959
114739 212605
417568 754113
424490 546978
196075 42322
85506 183741
873057 303394
345791 103185
880941 200301
360872 740631
367110 740088
564526 379760
630399 241565
111751 218395
845030 196215
58886 206811
702632 323425
64981 265605
828520 134420
909956 544745
616999 102602
246060 412512
203069 481446
618532 74498
636838 241223
519604 392990
365159 742876
871913 199967
368332 736179
199383 447836
735564 509163
839830 231686
910324 649806
649370 267398
697180 355430
338499 341146
416266 555980
506023 431448
515106 422852
358687 740776
649636 285040
646921 316678
633625 239259
824322 215371
517366 459406
122854 169950
365455 734186
413090 560650
263138 583518
750613 250618
308469 493618
214279 64179
616988 64837
688735 318118
428804 550177
368470 741808
406298 434558
375465 742655
827220 134405
722753 138608
184447 622859
220370 321898
874553 589966
356604 692587
643678 255881
701192 55593
855782 193462
217278 573319
630307 84073
60424 202394
366480 739331
429419 540704
656518 102724
277606 457436
545843 225818
367964 743680
666679 102882
832467 128836
872776 228337
985785 838338
373670 739855
49158 239177
326848 270936
845929 190851
304495 144867
366328 739397
368768 739211
162408 127842
647107 285261
424930 550747
374664 743831
362668 740923
645908 290047
369569 741413
731518 272769
661889 281131
191713 820007
195560 590464
389193 714012
389546 728518
419779 556512
368691 741272
883052 227012
369748 741391
399885 433807
968109 959830
255914 479652
766660 234430
289280 123602
363022 740052
645312 241443
667030 143826
169097 502821
550228 719736
863654 276435
403211 251402
95443 623884
734802 279522
370899 736750
259543 488295
663258 282597
361014 738229
268833 149920
95740 624401
326225 115073
910906 647308
368392 742608
357915 742232
809452 247046
674324 285614
95658 598273
547120 450411
723099 276570
660904 62367
816980 195078
596253 236897
366296 742506
912504 649387
358182 668362
169214 500618
103972 163062
802767 255004
374622 741153
77840 252690
814407 239398
665077 126092
762635 297075
827657 127759
746676 285287
395182 752575
404924 428022
102098 38759
624516 100062
368556 742520
668538 292213
770000 225688
360964 635127
364998 740784
878802 180379
724867 512985
841890 213678
371088 736615
871303 876882
588211 85700
188535 587106
74295 236588
893774 516060
285034 514291
849158 194255
635527 240880
826236 132942
883644 182644
613701 69257
656600 298855
248825 510549
907750 618341
157657 70720
370062 741385
654281 102321
279732 889170
475886 116506
365776 738236
361120 742383
55170 272279
310845 139044
636212 239736
695766 273393
844337 43183
842985 583754
625180 267060
625907 122844
28714 200176
242939 75315
768025 239259
373093 741970
78546 834098
190487 607841
849263 642780
850514 250773
399861 424958
99719 252560
200611 94831
847179 262138
539256 53088
365792 739922
367019 742104
410620 729973
913633 651906
737850 276889
34083 205284
432369 531766
348607 678373
214489 28385
830993 221940
371090 741189
402887 421761
870818 912394
476750 117720
54316 271224
425867 548709
118481 348040
292599 167078
673603 121619
364777 688507
47765 599576
285056 114055
651634 148428
373753 745181
828375 245652
952645 707755
402107 423935
613589 25016
629963 306560
452411 534889
800153 240898
136722 262140
368956 735963
690183 260421
370666 741947
917587 95742
17790 199657
82019 202985
367448 742591
164055 836954
826836 124439
170473 502761
644128 291462
368255 436924
360662 680441
426592 557084
39058 167212
635023 169748
66375 224836
731400 232941
241275 632969
366491 737261
164797 791667
346340 55225
666374 105700
943736 71124
425728 556134
113520 137427
431749 549583
430768 551143
365268 745134
857527 526136
621882 74421
627659 111257
807060 953474
30514 232528
817818 210979
408733 713386
371831 738680
671116 306027
817705 259967
52759 216985
843982 198058
368003 739592
367874 739006
621490 259759
862068 189540
133798 625867
75814 411165
743678 193431
362828 737747
64090 242618
262140 297520
176144 823950
78819 254658
201360 95787
364810 741690
48749 223261
670141 322306
363895 737037
475545 110912
228986 627884
434807 550939
429502 551388
362414 272744
602758 764713
858826 945232
260248 573902
901464 619161
315454 885690
837590 165563
676461 248399
55297 212577
873553 211960
660108 138982
168102 131410
28692 183750
736860 481429
268669 380848
368433 744699
554291 293530
403446 427229
424938 555932
434872 548300
636346 239595
54852 222010
19404 222519
523653 500630
616448 339379
838248 611693
715417 257135
910974 649928
74661 204123
310318 484461
427672 551919
368286 744856
707013 69600
693569 279839
399831 423962
156120 204595
504081 944792
618156 60346
399190 731365
875297 846247
478729 116844
428792 544623
280291 484655
47596 222492
674386 909062
633702 236084
544091 302438
368322 737569
167841 499882
636877 76262
221127 336248
793185 615509
372140 744040
425100 549821
539228 383347
367023 740089
667518 280087
372011 740161
697395 273142
675413 92934
366649 737959
824820 227538
567673 503355
657527 288431
717779 337079
792274 227292
364577 738378
370802 742252
133877 130193
41396 259278
574721 699050
650140 302338
348299 559950
172548 811515
181131 95040
223999 818772
622673 105726
264360 329387
899181 661483
444386 534508
170063 502438
366022 744388
99727 801396
678557 283928
169224 504670
27371 189576
875894 672465
634888 154122
364136 742269
678153 240206
692579 280765
366272 744331
743909 233272
670558 348998
430126 748477
298494 351484
658832 105571
317649 495994
423908 553444
371639 744544
420556 540263
651647 299821
372196 740576
836432 585587
409278 719928
433762 547121
732128 235663
864850 592334
81437 862417
224312 434266
640958 292163
706882 273116
850964 198562
189850 79621
373188 742134
668318 289308
370246 744959
372764 744442
860746 202987
53486 259064
230785 185338
65292 208871
834631 271638
879159 550485
416527 558397
913006 652521
48191 226848
754983 251536
536844 452824
369225 737548
914539 136110
232136 447178
365603 741606
170108 501818
396926 432202
103978 779500
373387 744328
550383 654054
306033 469451
302709 163745
429594 542602
368225 739921
361067 737174
688101 78205
55146 223349
657468 354232
499121 450153
559098 227126
652683 270394
228389 925957
370184 740013
844658 72092
454871 533056
204844 602679
366656 737528
128574 108704
508380 144817
367255 740775
364092 737653
93797 235892
804192 232764
431367 531969
847510 279119
661795 287310
820067 234923
209040 617222
244494 452390
871428 627346
440991 534850
115227 99726
98881 232867
792122 228618
792432 255557
440013 557246
353694 686764
37456 227331
893934 123544
811348 198855
241291 189086
268174 149378
637201 340860
105164 867401
370251 740026
169360 503441
906219 644974
871916 686155
857921 621070
737269 576652
375647 739744
664455 105623
877356 649515
647639 293870
857101 151545
928031 119347
87100 196422
150285 114691
62527 903239
595251 343401
758170 285514
631991 234079
155187 610702
956532 34393
64828 220694
40012 227019
628681 262585
363987 424352
821645 132225
125012 198371
311870 141372
43062 202904
616370 232848
907120 163766
367731 740547
406106 642982
722998 491386
101055 828222
496086 976558
367669 737004
811657 215119
75760 223253
821400 204535
366154 742687
540264 315830
430454 553447
638550 239527
551892 354436
664215 293761
668363 287759
931457 429165
844665 154482
264065 142874
909670 438779
81196 241804
40481 217426
368625 740126
531485 446185
857183 203117
316994 250
62544 222546
518091 249922
620912 81032
76993 861432
361600 741273
423834 548979
365914 736601
771406 175588
510711 453867
194832 598602
668277 103746
798230 329507
839676 203277
202851 26286
744432 271214
908326 646939
558530 458296
763206 302485
624533 243938
808163 230891
235399 165007
514929 317959
68112 219415
629131 78272
679877 291228
61027 224468
440000 531521
840568 198465
421092 555963
38336 235782
710404 243842
167933 504095
328661 143268
369448 736679
510576 500293
207834 604410
361097 679138
133231 184025
834227 277169
135602 656854
370810 738227
368394 737683
689940 657119
165067 257814
824522 133603
367574 745298
401173 714592
2641 801949
159731 824331
423102 553699
368067 741866
698119 340011
658541 255263
901299 845645
366548 736122
696344 64710
368647 740833
681052 120400
696864 249472
214931 145963
366636 741137
789944 228809
227640 88434
94779 683030
452005 529832
364445 741113
694049 304969
834144 194949
429658 546723
630495 131944
676708 221686
373353 739932
683929 67977
111040 791452
662601 268309
402186 434105
692921 289699
712793 272871
721202 271636
720104 265267
336235 164186
352398 681920
690555 82891
889698 942974
673856 308378
432010 557215
61445 198584
364698 741260
660033 311296
406460 430382
258728 444650
93667 251589
438252 537230
170077 502528
192901 612464
665274 217617
642484 148960
735393 487352
373745 741825
365581 741147
369883 737581
681671 121136
18372 235671
368925 741843
733527 88923
747486 213242
129057 64236
200284 98366
697990 557247
250473 687029
106495 266583
858061 174936
802336 253824
278161 178224
618795 919556
660656 128589
370972 741927
86874 224161
875686 182620
655650 217980
643160 43758
69120 223124
131581 5154
528694 443675
548633 464900
636025 243274
170813 502023
105778 191692
788966 206658
645821 22408
459111 533710
456325 43376
910011 649557
767692 219442
638512 244194
636245 273509
400676 433068
89244 202014
448818 532158
369078 743145
116581 642221
69479 770055
366955 737839
168306 503626
911645 650636
989042 501102
425808 549785
369026 741809
585015 130863
668289 273696
39606 225901
38944 232120
94656 702575
428815 547354
830229 139666
614307 305437
542258 355900
851417 200810
912795 650141
311967 457258
635319 243946
435051 555752
537617 465528
404946 721182
707083 124963
596678 332346
151280 58278
366041 742661
364424 737452
49658 245093
472942 115125
519219 424200
369147 743765
134373 158932
910912 652478
131896 100004
292300 577030
327411 129688
552987 441612
695603 115533
639612 243459
320588 321455
661710 281167
871673 866270
738859 290336
962239 36980
659111 106777
639805 245931
657037 139189
364529 740507
366588 739471
286086 381610
940265 822248
371522 744999
589441 276366
703548 254668
664268 146756
731754 320129
367602 740661
366307 740782
366651 741453
734629 240426
428957 559151
67863 617408
430887 547832
398107 433970
667772 106237
858645 194763
639441 306474
802550 392855
660236 106214
757269 197648
368765 740923
52224 201616
934812 87848
362603 742028
414867 706814
371232 742318
406728 427359
853101 198107
564696 300954
231199 494052
324281 493155
653735 288902
218992 145388
401091 430280
279928 492006
844888 203358
416641 565633
732145 635262
46150 242199
197276 90206
285626 99338
423641 547310
409781 736206
235977 124167
369409 741452
613316 308394
38615 206067
109171 121278
847220 246088
883865 265831
678951 161248
724064 255214
85686 213073
714545 336677
626397 92998
539553 449352
912225 654360
559413 858896
538451 264598
91771 198951
422950 548110
630158 51065
398064 429546
629692 307947
145916 445577
640670 243015
685029 281670
702836 97433
876883 192978
443177 531492
337538 737340
429211 542139
712828 484143
632640 231202
203151 95337
410610 550195
167690 502577
873572 184095
409974 767781
198675 96268
755064 278243
122279 437002
616472 50459
315826 115936
49032 232069
366050 741110
416150 548710
159090 80548
729063 507955
452865 34608
48487 809271
213905 594711
82205 705349
95417 219705
605774 241209
913925 651445
766597 276984
836857 203727
368393 739824
726726 495825
870670 557500
911593 646035
493102 855404
162665 861986
402541 430397
401617 429514
426463 555366
417438 561732
364972 742765
111513 444628
403839 432540
616735 91506
670571 161096
453667 538040
198783 96703
426835 551840
398230 432586
504762 420179
402393 429184
57749 211546
193020 616970
158068 181459
363731 739708
77180 384820
374229 742973
910902 648339
882652 603386
635283 238969
497744 473377
70094 230259
913352 654034
185975 180437
659244 95858
810075 202433
488106 50054
367035 737646
848780 210476
716796 255768
346760 102203
434119 560241
682946 270072
609989 350199
430385 79689
691842 310876
669887 71553
708729 300891
370599 741981
369310 742271
677473 146698
721130 251734
663553 98283
196874 91559
406601 556928
701007 143744
365821 743838
368589 742421
912492 649753
330061 148218
371702 740674
822496 133497
816941 235885
47629 238926
638054 243021
54769 218319
751957 321538
361643 743029
104311 341219
361622 741595
794864 228497
894134 931983
423210 559696
377994 742621
656961 168458
374061 739499
581375 306163
339876 150263
119910 895240
92732 223505
679300 85501
655303 97220
39771 213564
476937 119980
502310 448289
831598 132321
433396 554456
657394 300939
361948 739501
546213 77858
506309 611484
452057 536522
737098 506186
414907 553925
631430 52219
845156 192568
179993 95326
881945 212281
365354 739035
199095 456960
681156 323550
293225 534861
671167 119470
368723 738844
651849 332314
787195 93308
407725 429848
449685 531515
724102 510882
915240 648504
360058 739107
829407 622135
911945 77109
369242 738985
732943 264309
927817 595593
371639 741641
570446 298186
615899 93774
909908 647480
711594 248212
673977 55038
643812 18548
149913 403198
631371 116771
635344 239096
360865 684675
753736 273447
377502 743410
279295 148754
740455 336941
720232 337801
605049 293992
667980 263697
851297 226175
708237 245926
654059 149551
370461 742413
757499 291680
711153 248105
377342 427032
513236 434850
48980 205529
365284 741201
110239 708401
71360 182330
857986 186009
262778 279161
208336 614170
371388 741029
315655 124214
676782 289953
370340 740789
54190 220508
806223 239486
657988 105886
968948 679595
103557 206739
146221 647648
529824 251386
656573 89276
826832 526907
673380 122102
634688 260941
890146 161977
253011 116948
665422 102913
693276 106757
650960 285459
696020 110711
833819 205269
189422 439525
510383 34761
438489 531985
86946 188846
787518 212698
550352 468166
910779 649215
375150 740763
414289 550917
684879 247088
365339 737620
643119 100238
658686 111473
569888 214985
759855 277484
195323 603042
709945 295903
104453 629015
657850 283434
976277 796558
734596 503590
927328 108335
746022 52196
363206 739103
671048 287506
189766 607714
370731 739206
366212 741529
694905 229612
192895 93168
522725 451075
350355 674733
647174 330289
614619 342066
837051 202066
426658 550081
80661 284507
200924 96779
185028 601165
369520 745272
763830 881532
592509 785398
201284 92740
256750 726404
215712 182214
275059 157176
366107 745285
110933 627117
368121 738495
403832 429673
103739 192748
867036 198677
446782 535548
163437 656381
107803 405914
871506 192137
752546 553832
428418 553766
366574 744999
914529 107315
763715 895411
816177 250269
582050 275797
196622 87087
367565 739421
365449 742821
523582 18252
169615 501132
654356 280621
646898 289766
690907 628100
58324 215257
654108 280280
651511 111343
37162 220556
91994 238357
398754 734310
430991 544780
368391 742177
368975 743689
637691 238952
369963 741468
909662 649641
300659 807383
170087 365176
764437 558827
67383 189553
785892 217874
659603 107656
648109 105300
719279 539502
862381 206684
10494 830916
271159 288801
830044 132063
912680 649771
718178 265207
367568 742840
826083 222807
241320 101756
649660 86503
639460 144808
653779 117558
606416 263444
637625 239584
157656 853969
744746 311656
366699 740026
649960 275254
373586 740853
359274 686830
233700 538533
349812 368472
730860 308823
122978 649096
652367 329717
747801 326572
208848 604108
354824 739780
374777 743515
177989 829203
257337 489818
425250 553729
186841 973958
372716 741256
229828 601633
150836 665528
664829 318088
371717 739811
784643 300597
168885 502876
672349 122007
284622 465916
197424 603567
635770 238499
580081 288273
659845 278526
287121 138988
682816 41308
633434 233932
739105 201525
672713 264666
306731 751672
101922 463584
366143 742206
641808 294509
848794 216224
729223 200209
335355 294970
430840 549386
371003 740233
967773 105334
713501 250863
924552 981059
368089 330464
143417 628127
456999 650473
253450 129558
659680 148985
379926 479462
526667 492096
150067 409976
661626 291977
310652 131584
651184 250367
740932 605269
655504 198213
686710 283599
169363 501718
98091 255385
642907 311988
669826 307021
123960 137095
653278 321682
697754 791627
398652 434360
370280 741512
368342 744557
864118 187250
431246 549123
637472 237986
483138 503082
367246 740982
916291 498790
362076 576542
639510 243770
415766 557411
104363 222690
540223 426951
364308 744099
825518 322395
747509 266420
443225 546611
473144 111661
984389 486020
367546 738419
188476 129913
775938 286836
77884 773978
364650 661501
372492 743215
655220 207256
165933 834158
729403 247668
310335 170793
308088 124668
145244 822685
672292 106740
644238 39776
16783 222626
697051 41364
579532 304388
612245 114197
438612 550105
828209 130483
322315 151602
433834 551292
829049 132785
582764 927586
400947 424136
79248 168234
370052 739251
57251 207478
358255 738725
607224 342653
632752 235049
637868 239203
101287 215715
631732 360956
57305 223299
857240 214070
760045 220291
370240 739857
921502 834982
176490 194011
42647 268209
107999 692670
615338 265365
604979 288097
70675 193919
379377 401698
932040 860088
645124 304613
43165 208241
364098 737959
400468 427350
634917 322071
591348 157389
635452 290973
712291 177653
821245 252956
365830 741486
73457 552661
389589 728243
582715 245919
327482 136246
443298 532729
742412 216117
70243 247152
635337 284822
81334 205480
827059 132377
912446 651095
367019 737324
223893 265178
85426 254737
130740 17435
858776 608441
716384 296198
555220 254958
725504 210487
361174 741371
76604 206336
372700 736129
428936 548501
46607 195423
851113 135917
913699 650467
857012 173159
285226 153986
725353 507042
474359 112830
374402 739120
588360 270396
652384 204476
364681 734565
372673 742848
909333 650628
33347 148106
846087 198121
210323 449014
224527 449369
281113 172437
212539 601402
277172 138304
395416 924430
281513 458301
667911 249599
768032 271993
365408 741109
203489 99842
55024 207570
697229 266734
726969 115199
709762 123879
677470 300415
895114 934997
911332 649833
659768 232909
607600 81400
864310 188621
366997 741661
427844 554530
386296 214077
369207 741330
214938 612794
291929 135876
824819 133310
759541 227650
84860 853272
369375 741505
803934 939725
632393 358960
371658 739174
528788 460978
778855 265089
601662 328345
270609 498384
631518 242324
333334 153585
216146 82590
405579 56032
299452 515050
781310 189634
368810 737848
673485 292545
160385 125536
374128 739268
332509 170060
639928 745566
671171 273563
662272 221228
931198 699479
827851 218195
67716 203350
740434 495125
95784 848412
825310 237452
72903 603196
886206 115694
688283 189243
659319 101605
648324 274515
206511 584713
828774 145013
716484 186387
220710 599727
628223 305930
465013 31331
916354 649313
364952 739131
651867 99914
681811 92939
451988 535731
737553 244775
401689 432396
440031 550048
108820 880806
67168 217948
109918 218600
576206 465276
837989 189324
65188 250656
75569 220954
148171 396566
364247 740501
660530 103494
368012 743644
367519 741070
667864 103263
64516 213404
369461 738416
431181 548598
657114 279243
805735 200776
98579 388757
426937 548583
204687 601780
714569 133046
576466 324107
74229 245902
434485 537293
636006 241363
648825 82159
827117 280525
151147 843689
446169 547030
702567 228240
597174 101856
292548 136803
647249 47110
375437 740188
678548 256627
778750 293191
264313 527167
801646 212539
146951 199605
265835 463975
353762 686093
75782 208798
263481 487990
98501 115886
429441 547866
754207 244071
164400 628450
808909 203174
659524 268469
794366 232296
41548 824659
40103 240953
138623 125456
56759 220540
684798 76223
670312 116899
365749 740867
254686 47836
878961 188768
200877 133492
363148 739806
347042 667202
762392 64691
335536 470139
912192 651704
40565 193716
908173 329813
663731 252585
654257 236571
408574 431439
352362 684548
371414 737172
75789 243938
404460 431046
416599 557020
736185 491505
80474 84704
368068 738662
643799 271529
483169 692133
55913 949777
671944 677429
865258 211582
591110 345804
366568 740272
246243 406512
364040 738090
659818 36441
957909 899386
645577 290913
718171 91791
960817 106188
711547 484560
822291 234724
624889 436262
663658 81541
215027 230892
973102 368970
658414 89427
438200 534850
678939 42830
266440 469665
400853 426992
901784 547948
96553 211441
678970 214091
108263 832232
723839 252394
205855 95984
545400 455393
284711 156979
349788 353123
176763 691341
290368 157582
286184 494721
660945 105956
434568 533014
191000 621312
