40000
104966 760002
910591 921058
795885 875611
343175 865679
44553 179667
193989 239258
870413 119712
129286 15841
627806 716581
930294 133687
751013 74821
681567 771410
407268 647106
844673 74696
591757 278860
303266 551294
383414 751303
666491 372824
49493 179198
33984 473065
413040 656807
49381 234348
532136 59934
720801 308047
995185 453085
472802 154341
99872 378707
810922 109291
825913 789813
552523 442863
427688 472350
383377 974243
64687 283765
308329 74201
427422 591858
193986 541954
920058 447765
273236 850494
776118 566201
796107 168890
437830 39598
328324 333554
785607 149396
402816 811110
635923 980057
168975 930106
572297 701621
174027 457566
801998 975494
587129 5531
49220 417506
74986 30398
433650 219162
717009 168609
244197 19989
373014 726100
214375 741376
795837 965459
428503 214229
248643 695761
521914 477041
924931 766499
552092 631915
204067 317938
781547 105663
617422 333795
651813 740686
602082 128796
696566 656936
994060 303607
388074 154714
278690 711486
287749 911089
338653 53977
905922 189291
114132 567068
651013 651651
139267 473225
861065 244630
49725 477805
482886 427466
975056 592089
911237 487500
437061 44363
865909 681911
736383 711364
706604 183993
302717 178946
586697 40128
915464 213820
84898 139420
70375 721489
49625 731271
661466 662168
840836 701081
94186 726668
228095 368285
29152 994964
860904 303505
109723 950376
422397 25025
84781 233714
816174 556104
20235 636824
940762 656961
333918 164339
427450 35167
10112 447663
631401 730989
572065 263926
243597 199244
591761 756629
572144 223936
203540 49966
686240 502664
333758 313117
572414 611903
815822 413208
979895 318329
760796 517842
303798 239498
647008 323726
671536 218551
398252 184236
845803 188960
253799 905045
696751 174743
284001 372747
801064 940622
750894 4740
761197 765930
870530 114739
781176 930468
950366 273400
492074 567595
895374 193556
507627 164315
477985 736050
612775 59017
920558 457467
209295 641977
437228 208757
606549 552511
906074 511786
388322 667336
382735 184238
960217 4952
512567 64396
880341 84408
860286 487581
104525 566652
920358 895418
363412 945092
970544 984640
761357 428381
312851 193909
89600 293507
213790 353167
527223 517713
248724 572087
343571 875521
258264 810514
422411 173749
854952 447711
900963 149253
143851 752054
830613 64124
647277 631707
652220 721932
940443 536900
472658 980443
961037 800831
760970 347641
308516 80279
687360 378125
855430 189631
895203 304089
292864 427733
607618 830507
238765 945975
781504 332441
801105 278476
164079 945804
890921 815811
716252 527173
458267 477728
701090 557736
139718 283494
989632 944888
994533 199036
98820 551794
586378 159983
313520 34990
984970 766191
213939 801067
342931 881058
861522 49766
547084 702121
392963 914881
691133 129550
412935 965103
770407 521741
372747 994467
75130 636970
636810 880750
488000 198520
99105 413418
213976 328573
139024 54538
417118 160067
811028 189177
348042 472086
885300 124299
780983 671644
711106 781289
274100 328564
458084 343194
184713 462914
304215 333199
736262 830742
931013 387898
74622 378517
766818 34860
462703 153951
562133 924603
462434 34966
15275 780968
915377 781122
568055 721516
994726 820557
70072 711116
826656 402475
990440 184138
890521 85007
512416 139090
556884 69817
821194 393314
74538 845488
875541 721173
563006 965191
487505 706447
920075 581910
835152 845795
701652 298455
312634 949526
965611 486995
671182 398052
168653 816035
721356 940208
706654 128850
144312 229061
19799 830357
408319 392369
541776 314172
447974 443251
238608 984065
173847 19436
318277 676393
402964 646457
373499 671903
770802 223889
239377 19812
40400 881202
974937 682076
492783 422658
573259 359039
627377 392342
702271 711381
766135 124438
845590 130236
203786 468123
184314 726067
423150 856250
840127 34555
532467 766721
646728 94559
478568 989944
875186 54978
990191 367542
423267 512492
422383 501659
541626 587709
144248 656025
417611 288500
647076 806131
323583 288589
413093 283858
661868 552744
616820 163768
676149 402660
756074 48974
378494 357930
637238 562226
343273 493183
846064 969720
597005 791005
223909 721242
44727 990468
576953 636710
492802 317892
940944 845986
184288 934864
895494 15078
93770 670940
492280 34736
552416 10120
980298 288285
970207 238772
602100 253974
189583 895351
412785 348511
641569 647410
700984 234362
363512 695869
512223 10104
905321 44712
522022 49647
438562 496872
666718 203330
338671 164736
685995 124622
70003 58944
621865 357814
59035 656878
945317 586789
203847 612102
442324 531956
243495 686522
343888 955755
980704 815837
432659 875995
711392 746468
929233 587985
10543 333038
826465 233424
940877 183660
855384 985436
531936 233105
119670 422573
571850 761140
726530 771041
74340 124437
517715 363726
950217 875611
492511 706729
412955 328818
841199 731458
318134 407303
293949 134058
497759 711713
143962 707226
641159 557482
158673 949683
15142 412639
527096 84960
681638 865561
796189 278854
298387 652129
388933 751589
283797 984401
731015 855862
49800 542601
940338 740929
746502 686670
557524 447757
632054 397970
826287 45407
552420 254567
552465 557258
801215 363592
159616 507812
811422 736427
855762 243512
482112 39847
910477 373457
55002 821000
826563 268685
254169 776125
926182 701408
602171 289669
462605 850827
468231 328709
621546 527013
507183 238725
328956 886104
44576 899969
24827 134670
507220 49018
343779 128581
652106 308061
363146 124246
617224 422513
751673 582546
174067 910749
258387 19330
651352 159217
482146 184218
467542 84771
865436 477328
333496 894967
54656 29304
696168 935042
790741 218834
527171 528382
895466 49683
542087 821051
960361 378648
218538 885180
671795 89593
367909 114229
721588 989845
139235 362948
701779 89959
726279 607058
447795 596974
776169 950210
189614 969220
930559 607806
572580 99274
552232 208524
39857 537546
214501 149534
75808 536923
218914 691366
347637 661966
327840 691346
124449 79664
278448 407957
169200 731462
174502 45158
133983 895401
751204 174582
204446 527638
870530 706268
34508 228784
333022 691409
562553 577146
825792 244208
293633 268459
377291 731508
169244 502515
194583 691324
975005 422556
726880 378257
363613 761026
875646 681141
685923 885851
840497 422957
363581 875037
507882 483022
258532 645915
691694 786550
218996 223784
174132 312481
253823 900470
880914 835572
984798 930864
59164 815590
498014 363271
114529 924848
627138 775963
796355 113825
869837 74269
348521 836413
154183 581872
377529 691757
616770 456486
323676 706561
731464 910579
617060 24220
238830 468036
815296 666704
497787 890180
876068 278404
641497 586626
99285 273651
755366 59498
771287 989692
592099 421914
945928 810990
626399 542103
437139 815881
248475 59608
378946 104999
258598 183927
761457 382647
527410 283623
14849 447765
607213 581616
178864 453043
358156 184512
561433 328356
183649 706536
159630 522669
686770 696333
771381 40172
821049 59804
174071 641668
676087 412890
357808 820938
208657 163779
224460 89772
687666 816270
323246 223744
323178 795927
840950 30335
571813 234289
237572 483272
343089 259063
602512 905646
746186 989775
940315 70055
577161 756360
785639 606639
601800 517274
358187 407877
870633 283375
70190 358250
697086 218697
487977 427656
317846 14382
214114 830310
348152 338071
74373 866091
218501 20262
14641 249020
766379 745720
104830 786148
159829 50064
278786 766174
269446 358823
716176 910215
19309 975578
900619 880767
865537 447231
512646 552820
138774 587469
307844 517736
497312 886013
731025 492333
919883 84532
835316 995206
397591 348596
563277 264280
219621 438374
214262 208855
447670 910180
85160 68815
870302 104320
975128 482503
781512 796503
119103 24008
124439 771123
392979 34622
84829 581662
671968 65009
133617 223740
208940 228561
169145 765574
606829 218863
273864 861169
40023 785395
55039 537658
950464 701704
985224 423285
353732 935057
597077 691705
970497 865188
85199 313613
537197 458127
487665 209262
398046 581965
199238 517370
407899 354083
214258 323711
706233 412279
855834 959474
481990 692206
397815 154195
10054 259056
805844 497716
811097 591992
199217 850923
423113 552460
970407 293642
994718 383215
367897 283763
109409 921506
427596 766113
871453 617593
328218 273739
945647 840895
641864 801129
711652 223581
467952 269213
815406 159892
502669 806456
975296 677076
935428 632317
537277 218689
537361 994925
890232 89755
16272 949933
686680 44899
503048 726587
577494 527556
612196 969339
631822 621228
89093 910594
243013 542241
214542 850197
408447 637629
20207 541718
835573 467745
681616 378148
213676 836164
875381 99754
666423 751179
716264 651948
209337 984770
109287 353251
602120 179226
781321 307926
975358 269100
542930 249201
29891 34601
776157 49335
502428 740998
622133 90019
124867 188625
209071 721075
74834 810200
631423 353625
457391 24717
910834 243386
442678 975201
239181 766614
517252 866104
751158 651442
228517 946036
940528 139791
229088 273634
412960 840838
55065 856359
860703 712024
845887 154313
731525 626169
179468 437963
870313 29931
34502 248964
860960 795914
630978 876342
687064 39880
831487 806408
313585 378491
919707 198283
861085 159170
746529 487951
402868 770774
84419 203916
64970 894919
223915 916266
846392 522146
946080 905613
567290 398102
229044 328320
253372 10119
631940 98813
860597 676741
413369 69241
576529 851072
915610 840155
905462 462240
413651 750996
94654 223242
154371 676650
104968 258578
895833 716372
864651 746133
994809 587620
711307 835202
651602 412374
770703 810921
423051 672065
183919 199723
786244 969618
597523 522403
93998 895434
407727 452710
388303 273589
994689 831864
870768 447792
413247 213242
811605 880303
552381 552614
119358 258060
293270 715803
407826 691619
99518 462551
950197 865824
109430 517006
831066 19538
731920 456730
447167 806151
392883 317918
417507 383275
388109 586779
467565 343034
850524 363508
313860 800819
194194 9750
268486 562385
44436 278339
506510 218971
287481 84781
577090 288381
881040 865805
861101 701005
975348 457706
164191 74997
204378 198749
830501 453295
507771 771535
691194 343051
193682 612099
158834 388589
761353 69954
547017 970750
39506 74698
387850 343221
313956 656763
293556 30109
378328 865551
278332 338381
119146 69823
682386 971051
467589 298559
955278 218416
268918 46111
184279 487281
358728 726567
929986 850741
701298 164407
836457 785949
448138 392957
960720 35654
761287 143897
378046 741524
317930 9888
990023 532544
44932 801336
522450 581542
368190 979762
501870 761602
397844 124866
392333 845576
990302 676506
826528 382442
382789 970621
288216 681460
357605 347964
89683 218682
910461 154443
945646 677544
327619 154196
725946 726610
348232 910755
408657 914667
328313 935968
54792 840785
288313 73745
64824 458051
463098 292772
995089 547868
328817 750279
347773 612183
771583 264234
134593 268435
466943 264728
352784 685244
388376 740895
24812 531860
969690 129936
343042 139727
20628 790994
108780 796128
114503 477511
517851 59982
825806 885234
219224 989617
970091 124592
10454 337897
855583 751092
452919 74846
104560 875288
199170 403679
463064 149249
253154 398467
731826 796321
602303 890166
945715 755350
347533 841970
5190 94864
885081 74507
289348 432809
398056 69545
502596 681614
576917 890780
487102 129340
25055 865054
541995 806081
885094 392543
567370 557529
164503 15274
741913 945459
572394 795609
946352 278823
517612 716708
204277 652654
626920 945478
233350 164749
561838 134481
412235 760516
701317 158922
651316 547880
238219 552386
143772 473199
796356 40047
855679 506962
50269 786269
318355 29493
691224 611787
457839 886029
706379 402932
656840 522896
288425 364190
935978 422904
551815 244193
516713 348044
433383 39589
352884 741345
915376 84385
209016 891122
935067 825919
586098 29256
44187 611611
377894 44625
532172 413606
975476 686763
148729 129555
39272 800625
114447 323817
785846 264022
471744 452815
277631 244187
228967 114366
691387 756046
69187 462924
128657 577528
179445 134903
397825 960007
522488 840826
606685 636920
954729 413248
144810 467667
497459 138800
676038 556809
298903 29508
89542 353248
990089 601629
25798 268601
213445 816429
119481 388626
626677 990786
432619 522808
452270 100823
124710 193216
317703 647055
288627 467380
393322 965372
438095 238775
692134 164694
860946 169187
462604 263919
20548 845419
452678 104401
656029 129393
576877 622136
233776 507428
502695 526624
611712 577270
751206 368285
899642 74664
164191 731181
513300 288467
174015 373350
208311 930433
114650 970126
189241 203997
771236 647154
974765 756439
139119 622110
667227 45297
975466 801175
621751 153943
507789 811311
721988 730857
90290 497497
293404 572664
358201 49465
836069 850730
905924 716250
488030 547076
751635 736715
740758 816092
616476 478246
283784 263257
601899 169445
552062 413313
94433 831269
49755 512771
965663 373137
945061 542032
128844 681922
890305 373256
15239 756489
348304 945056
661251 607524
855590 527196
283927 358143
318517 710735
582381 179215
567203 283336
756861 178871
193893 990354
885440 941195
49755 586375
945287 39428
955158 457487
845449 840330
730979 990027
502653 328465
372443 403122
994754 616597
427930 49671
417947 44458
199694 637407
870356 218339
184592 925987
795344 596962
477607 462882
98891 383941
840279 273550
382925 324111
174019 894950
352950 188710
273673 662576
591368 194446
865265 542367
472866 164117
467892 800941
766240 989666
895096 612203
617065 685723
710972 438108
188629 457981
323039 427788
746177 860838
587046 910633
811299 617348
34471 99344
263616 492644
49791 939866
736360 925463
736435 756821
98887 422919
328455 611843
288678 960348
144251 840967
213571 691391
193913 621981
895032 159315
9917 418077
139119 745867
343428 95020
866486 482438
925775 204188
701446 84128
308519 810554
120146 189263
919749 994688
110137 994313
79765 338789
129492 208346
616704 780740
527391 64563
989628 134823
308395 601649
736639 965335
348710 248212
328865 144998
736840 89173
293882 631674
602376 552286
40578 696899
821333 905118
706170 989944
831167 69197
193567 805307
920800 746328
329150 686076
258684 90142
174073 587302
552256 830472
199408 254314
10279 532524
626650 188852
477665 646793
189569 731247
517411 183737
407816 890673
149017 985592
130005 448175
164627 632601
726184 154092
64469 154538
138439 741115
751874 586763
900765 870059
776379 556987
871273 980675
178791 258985
905545 393333
596692 677242
432786 621810
348359 4995
154095 746679
348268 955176
672087 950638
343469 159249
198157 587291
846115 572524
760740 985456
318487 332410
468121 556944
363894 432993
327821 745799
244659 556354
204374 64155
303294 492461
850380 14896
895495 209333
482716 915839
562212 711566
691246 900126
45007 258056
666891 318703
343963 388163
4910 880576
830771 816355
701791 681584
209290 881028
363395 4756
353448 303572
323800 198740
895676 437693
920281 960155
831175 492130
955865 367992
15120 651187
268650 671128
915361 169093
974886 397248
497944 338318
970244 553035
890626 602248
851001 547121
467726 950834
944567 144618
134090 452300
950856 581515
517248 641749
950001 646626
423411 840838
164836 34811
234552 671502
447441 64979
781626 851259
721027 168951
128698 472658
198785 308376
592008 995410
94773 432444
940175 178887
789787 248435
606691 442470
293866 84496
163518 575946
989856 223433
312751 29488
735894 871327
761083 845892
219136 896306
651253 890426
666404 661151
143833 675756
308321 547421
188775 820929
467243 627285
676224 283514
875986 522171
596871 30514
362693 278915
656201 537186
317637 283310
214853 472993
159450 497283
418446 75065
512187 179008
14787 89254
502546 796093
746016 920704
552026 93934
193920 154637
935655 199192
289128 735824
318405 273891
527553 368430
408303 4888
558260 810488
482542 940249
611914 870522
895456 965533
452042 726165
169584 19802
741018 881170
746091 189344
457364 621603
532197 49640
810659 806362
496794 616931
268198 368553
656727 751930
611840 706301
99110 39305
169309 49370
831599 183507
219405 264155
766365 636583
721157 328126
25187 109406
471648 905481
781610 626551
229578 337742
914951 243941
751115 144675
596835 646741
10111 607015
775630 487322
258101 244055
244046 461974
44357 423183
909770 352702
775909 775673
581955 338009
587266 642888
418024 398161
940513 601526
149599 592198
263976 453394
313169 477309
368371 884957
103787 736344
5177 851009
925647 930319
701003 274033
726386 800714
930395 64276
582103 816128
691583 921776
587206 298001
64622 890998
687202 338172
905941 50409
677077 686633
601557 299050
129514 20181
970067 641712
861144 54537
392970 865455
268603 741363
910137 751208
134437 954769
646884 69649
233429 512604
144217 508244
935357 203593
741476 20076
487454 979762
845326 158800
736072 59683
984733 68999
408553 632699
35314 79888
408542 159062
49777 909943
776039 273152
293560 671670
69636 293381
413058 55238
248488 238935
288223 105326
164965 422867
502760 432918
602125 691520
661291 770906
636955 333389
164275 30264
891338 666673
661335 681720
387604 900985
278965 452195
357165 398156
825571 224434
9506 816097
507239 756229
954752 945703
129660 602587
348597 617130
293407 244254
15554 934822
915582 572068
865896 129573
208603 885574
845933 50104
139297 785867
775604 502448
198697 342923
870360 826388
990280 54881
109141 675737
204485 462400
243981 856062
158740 110365
407612 955234
855552 866329
845908 925015
661852 751357
954858 39509
69978 905437
582433 581861
851325 566495
89206 685835
834842 428322
795617 632219
631809 149252
348234 765897
646642 834775
502521 507704
348490 84309
421705 447293
109807 208858
761321 319017
671845 581976
288390 944291
477337 865961
119033 372472
183434 203591
198984 228188
542301 636620
278525 895189
552365 218595
841313 507666
134164 218988
94199 766764
596322 79365
79618 273948
184867 915312
233601 343000
806226 656899
706660 895204
870266 5367
821604 124665
163914 164084
65312 50057
193927 686977
959958 413372
228994 452580
437714 109024
830513 49715
218680 801274
735733 129303
894583 373420
631698 611962
169855 716560
761927 418099
89445 766700
881001 119768
209177 711396
969840 432788
463071 711228
531869 606795
716824 14899
14606 497492
771680 163982
208718 174135
646731 721494
552496 905012
532419 516954
9955 576654
263519 457933
880876 40083
955163 636250
223944 30178
278435 816376
765609 965295
965466 58716
865818 228282
934757 14807
89281 427826
507382 645841
597807 264599
875658 572818
924714 720561
690943 542372
601764 143940
119686 900323
776440 637100
950297 895231
576888 357248
984906 204852
84949 263231
612092 130168
661066 447983
64893 572317
258337 173529
686603 716449
691824 15196
457818 571628
93932 825966
249363 383753
463583 795474
20872 979993
651145 950349
304053 457425
44431 667101
273641 995356
352983 970124
969442 44282
731740 293729
323416 298839
363444 348208
318968 44857
920219 368118
263635 994814
95046 561510
233853 148842
686193 288464
233888 15380
522798 138873
860553 14823
641521 174690
537372 547019
203472 632068
746682 766294
949655 806604
507512 706400
15456 14683
905726 129819
710779 184019
631668 54418
979947 253567
945445 735961
263688 895562
19605 347772
720853 283549
935254 244220
69939 890974
845213 626260
358345 661663
617177 676208
362657 134882
263908 656656
312879 541598
721268 830441
512816 625952
581299 258329
303912 919917
527134 861233
691731 681536
771579 985341
941148 427750
203920 856266
407900 561858
408341 705990
786113 990010
383195 14559
905131 457238
581660 959149
765505 508074
631581 651568
273840 134087
139568 298188
393096 746381
741500 472484
765709 596943
148750 497677
273237 501850
706709 343588
114458 731325
746087 343035
34742 989895
884624 701028
979568 861230
696440 268519
303193 44617
24980 666320
871249 756377
54359 467425
343567 716661
203784 407637
840712 447950
323173 128977
413024 268993
84771 298521
69414 79746
352863 44932
796503 750644
561613 238907
616568 65290
880186 388030
427442 243853
860167 417767
492798 174341
273586 592611
150251 741437
303550 561770
880174 104963
29513 29781
537628 338146
755899 701339
755920 795820
736069 806100
298506 661295
572553 273493
244043 561789
228511 681863
189227 164400
751522 835603
502361 899756
895194 278334
125008 169179
910820 412396
761589 288846
398013 213413
99637 407497
273933 537158
377927 771095
378271 835651
746119 214109
805074 378290
979347 109019
203561 934963
955288 467540
906124 711292
318211 532140
900938 243910
182889 333206
363482 234541
517394 367947
531902 328766
741440 870047
64882 606421
124253 114794
447587 795847
631783 472120
387869 955278
895855 806908
413083 830929
224089 710698
403162 438008
731504 746198
318138 249141
238956 785914
144558 661851
84419 229201
760914 183856
975493 264216
332858 850399
851061 120211
114381 94202
816366 58482
785950 318391
40070 143980
54656 885541
119303 214023
791375 40200
786235 99976
468073 790758
801496 163918
810312 935220
273320 811377
507212 408206
229178 572640
924415 871067
268597 940296
367754 149310
513210 328401
582017 482494
74000 686323
686365 741485
985231 74761
134057 546009
348588 885936
910598 84648
472237 866052
989994 646939
225060 105055
527524 616546
99667 144338
701900 243910
154497 278865
308555 124178
173825 716187
154516 651183
143715 552163
193867 89804
766175 845667
5003 129682
794807 507026
79705 666645
433029 502387
398303 686106
238008 950155
885308 984890
318641 791314
209484 343526
243975 392949
124934 831264
387644 437778
791289 263859
25121 760746
522141 9870
498094 756452
950732 308446
974685 15163
89711 836275
457635 945273
129620 969785
970037 288439
637141 940269
234039 74578
760319 706557
223947 487735
874933 851585
278283 696575
49628 597293
836139 776606
383584 353288
343410 870566
492296 661336
49168 905210
736174 686652
771596 199593
24461 705985
498300 686043
786475 681036
940038 552180
671430 940774
328143 64843
422941 751497
980128 900087
557935 357838
572085 785879
616789 587434
59387 870941
503471 780829
183688 308787
622303 691170
133405 59477
751546 561660
930175 149140
193835 298823
323761 423107
258194 418109
880685 876074
144163 343424
74540 233496
9427 113926
855201 656637
159147 477640
701504 427705
25076 900434
856068 54656
104218 373615
651672 329421
145208 537355
955051 199661
681649 79065
253868 148256
641235 825512
935510 651397
259099 40451
243759 477611
144743 446653
945504 582026
607238 34850
745971 69716
636669 566652
571740 64180
348397 423371
203997 701721
741622 697691
761570 542415
955420 632006
209510 960423
516768 577095
20948 203436
24479 979508
493169 263472
516915 805326
482804 741862
805744 402476
418124 457448
581611 880163
840417 148936
134021 258279
149972 955103
522246 622182
795211 432390
318082 486822
955344 546923
194816 333315
427643 362400
970593 213149
467715 522351
577496 378470
885498 233846
34752 428029
512029 512493
914736 636649
343139 438144
567392 323120
512567 805511
224283 25452
662071 885756
781476 432475
959586 14742
164598 929846
278401 168747
333196 666539
483057 487851
128713 642062
253828 880255
402247 109939
985546 467864
323735 924776
691237 572243
55217 950000
154500 138779
562081 422667
287949 79671
786275 279013
317996 810583
413774 676650
562059 492593
706407 631794
457765 289093
601796 994928
105631 233780
74774 567010
542491 199337
711361 576968
398411 49984
184067 298849
34819 159071
481187 696413
363748 462533
612485 915063
671889 437650
154162 204148
990978 138776
9422 188685
50235 846206
875562 34584
372794 333898
667209 413184
875807 149042
915130 552125
651881 959475
314511 74427
796436 552422
288862 611734
382984 298719
84441 796358
969479 163901
795947 945721
826125 881040
487380 865707
656872 487668
916058 298265
616429 651941
233745 199051
720996 854867
558230 502463
796332 264268
288464 174464
975090 969284
865667 462979
656997 174006
168879 975588
278605 268543
994257 691327
547790 790922
616509 532292
343093 532301
790519 149756
383040 934924
491789 229415
303599 926090
959825 836118
611810 44964
358216 930194
149426 14894
458328 870323
75317 65151
646890 801240
373331 562122
686874 901149
377918 124537
979998 955154
362797 164236
283636 885708
483178 552416
359005 119965
760935 303007
60368 472193
806190 408275
403190 273728
701293 750893
308367 134557
891086 885540
521789 512421
552455 128971
865731 124734
921094 442356
969502 567349
65006 398932
486932 910892
732113 786230
54446 198929
567766 740842
368221 721356
959781 885840
422622 293807
378798 915156
298698 760756
885787 417994
546965 901096
820794 507140
647224 696012
740813 776409
452975 984889
497391 134299
338641 925565
691549 234149
477483 608142
397978 239270
732081 54524
402782 552126
955480 716352
929272 621983
462701 990430
607246 567408
348245 552505
69275 208799
556625 825434
641562 466843
835606 408605
134529 741353
386942 646901
94931 124761
89401 721102
662066 517795
527209 974742
308817 85010
452645 263384
751334 765983
208919 765684
706342 561727
557485 979536
253653 433329
801564 89775
602795 592078
776497 582498
955222 14829
692115 218863
198744 900918
566830 119703
288630 383199
686538 462389
865502 936233
268388 717044
412785 492490
382861 597052
820308 661677
915032 257728
914938 885588
512799 915421
68943 805715
64192 392092
622221 870542
846067 30033
899599 482122
513371 835465
348261 273263
313788 25129
34645 478228
298848 483237
969990 920654
531555 318864
869923 835943
547371 656646
735624 397564
885835 706937
866421 332957
925674 268957
347748 188252
253028 213964
418295 8694
846247 745889
671099 641796
880770 134249
258013 34964
780745 776379
422830 59654
114805 418228
89926 4699
90273 109856
552589 537598
49974 377782
521887 129500
343687 596980
820526 636926
83752 407739
651349 591893
288435 776368
721255 114662
259171 477729
318141 756799
463089 467945
14520 717096
79970 432581
467905 313614
662120 740334
795595 417480
925981 805614
860792 262958
960807 730840
143591 64808
950682 602137
288575 522463
134597 203862
149184 930423
616978 492763
810686 994998
850355 880330
646476 627325
164064 856392
343668 502047
373375 845653
318607 477448
138624 90252
313318 985270
601739 641627
238898 661294
782073 984751
403188 457665
174432 24990
223900 213754
418417 556884
114383 263483
258709 706955
542292 303369
755645 163674
412410 44773
438025 114358
462051 100274
263334 159153
313154 109130
512467 900287
855919 387160
318834 542525
164653 88915
596579 83281
995140 462925
258516 775847
129763 627380
995015 751809
328793 980131
253556 348246
561863 790895
970078 601610
482421 631201
651011 189496
189108 886013
497480 357991
74746 80011
35586 179268
302492 323784
352736 438220
238399 612177
487842 656662
44804 139544
382366 959851
119051 15053
15375 353082
661934 79504
468088 309149
318759 20435
183747 492079
59287 358179
477468 750965
264384 955001
39654 378076
173036 173628
666429 333748
796647 566800
417253 348037
79593 158518
328591 100285
850425 45048
259588 990158
890608 408238
20147 716257
874847 801528
39330 263152
417786 956005
954847 790645
840865 541797
442713 60024
29388 99878
949940 741743
666630 924957
636203 427819
59363 781111
537749 940439
666668 323236
870072 352889
387636 860671
586495 79714
29165 328609
229616 129443
297990 810679
377889 526841
471993 49606
313248 93930
438512 54604
99910 54330
825713 572104
741954 343443
174064 536926
731379 666629
119408 194171
35019 284231
328123 940313
84249 527554
944410 204334
512451 845749
945582 35304
891282 682147
73717 134404
392806 59731
189452 890864
10515 934503
323206 974702
587810 960208
960127 601696
4637 498388
973672 711629
995241 412842
920284 69992
164353 124124
930628 502726
199319 800859
582171 129601
592459 283720
801351 99708
626382 861045
989706 442789
721215 597428
343694 621596
134160 437424
174574 626816
213759 447516
244132 591412
736080 119830
178602 626911
243519 487651
661201 944514
318493 258222
850786 178267
363527 44276
20128 880401
323266 482590
567289 228466
899414 592460
343154 164028
303428 228935
154329 318048
219050 935218
667394 994852
939939 985272
5445 249351
408005 258646
169608 393460
845892 173748
905376 601284
318248 611725
333264 303426
129101 622384
795592 909911
646523 437126
94579 258288
333894 39121
662115 258566
945633 298703
487574 387747
462592 751192
795579 178311
328270 676539
682211 218900
595960 88679
616782 905325
25278 586675
199566 811656
825445 238900
397854 59182
94614 791171
975049 108985
149734 438158
343803 84268
204415 517477
25225 601623
149049 859882
79790 597290
442894 552336
392555 856203
457871 168461
204357 721356
443409 925727
965290 24181
855481 517284
332768 487880
526835 398365
835482 483041
50293 328643
811176 277910
138885 34918
969607 696912
572275 457480
671277 264059
901513 313215
935211 323721
383234 836292
128502 835769
736332 94312
522864 119343
209542 805934
269097 845901
194430 631795
502794 188620
417534 845514
452146 636721
208673 447010
626342 159235
462100 39350
119381 607150
50618 592364
343744 626706
188838 353063
477751 243592
44991 855882
24909 974757
761610 701661
750875 811332
790436 163878
805840 413464
44991 676889
89836 984859
109667 810802
507324 502468
646226 199275
74771 586662
551856 481974
691610 39508
552629 418207
671309 452630
114895 695931
337933 472937
14985 840187
55719 845882
45110 398351
209081 288949
770419 795744
89685 160008
413329 925877
9694 826156
413756 935031
841121 920669
155097 541934
243699 59714
816627 542553
14932 357977
537766 109683
363366 363635
582550 89772
10256 741115
208637 323267
949675 501842
790907 273579
592281 632407
134264 945181
273584 169242
875635 875489
197626 64887
368163 831033
990383 612613
518063 219201
413429 835060
248914 214113
875338 502612
283442 770975
537665 154371
796389 666848
670950 279226
905288 810481
597179 272903
373824 895536
671996 915641
731106 352897
701113 885957
248466 198766
393232 432770
656308 517142
879784 194123
856020 561840
556854 865753
268002 711382
244133 338306
586937 586956
542287 870590
950086 775246
911036 616719
159266 368091
358110 94353
74077 263348
369006 413161
849880 198786
751680 492887
173823 870837
119666 602243
985577 885664
920136 512722
408303 567448
299031 940371
965066 512927
552151 681573
64750 666639
572252 328547
895415 64649
955243 885677
651646 606776
268933 651550
497395 219365
801478 930353
507225 597533
826059 458517
263980 745458
140430 49529
213805 462239
118596 671246
676258 407231
656596 159165
477912 691950
576767 820754
854594 333056
552928 473002
492238 527070
159533 845732
706735 507932
846151 567678
368006 244173
268005 690826
34336 607009
124590 408391
840329 785138
25386 289292
428118 179465
149282 338029
313171 865939
432645 850609
627330 283486
611122 9877
542200 5955
886136 49793
546942 577129
30509 88471
239171 362463
153575 835524
134245 676711
174319 189447
168701 139986
302879 298498
511901 134059
114520 581878
268368 666498
233940 253805
24257 367804
363457 567936
49631 522452
462622 924992
666533 417700
64134 826223
811433 218850
666506 486679
647127 964984
775651 377696
14781 905989
541844 661717
203733 249398
566980 860409
318342 381877
791386 786613
586370 531954
826340 298323
726113 238752
751579 387333
904909 900537
199358 959757
527570 994915
94509 606507
492689 537129
865141 995294
776132 915662
567943 706024
382666 358545
253937 507211
467949 179054
576956 885425
472344 925947
75007 104563
611843 766718
597556 855377
975343 582006
249191 149992
547699 646883
139101 457717
392671 358274
622224 787001
602303 378845
423271 965479
412730 776980
965194 612440
388471 606837
418122 342915
124919 323692
428351 940776
562394 556643
168749 328947
800965 746581
984725 452676
264016 44621
810552 168716
268575 228095
213626 506928
552430 268830
417222 422568
238637 233653
706698 884832
218689 596698
124594 109813
710924 920170
845604 328666
656487 766130
134803 626899
24776 123937
691511 517375
512246 477136
557293 959964
199333 278406
541799 930601
120180 29585
328040 891015
283797 586507
448219 29452
79739 975293
323332 64676
5158 578067
661255 229520
288714 284177
915851 95407
572427 29202
452800 114566
283475 432374
214217 597328
850751 468276
19359 756663
949924 497056
915188 501929
24535 53762
820745 965648
980169 104667
596447 761210
209590 662267
234016 348511
686359 781823
348191 453723
154405 517625
471898 34855
856183 741281
541193 84041
134977 313468
522799 20105
74419 850853
681620 368037
462818 626859
502060 816426
44987 417914
373471 109715
522121 706572
905750 238338
149366 94452
382579 25010
382124 129348
651605 367696
234321 79406
612339 666855
671389 726063
432676 899865
212948 110226
29395 124285
239131 312865
482637 975448
895553 219473
602110 53826
826165 478619
199371 820845
313680 79422
507518 351855
293639 227877
627199 367814
10175 15687
68860 507447
542685 682111
19953 950687
392686 104721
35618 501611
60127 671648
304230 74194
721882 905228
382783 317816
587699 234126
442521 348347
174250 746567
278825 34822
148929 34921
935373 840839
820157 587194
557404 164365
880328 975500
591707 965562
179474 174241
786171 716883
896265 631634
760689 109471
815827 437989
428359 646502
531819 850693
716952 746727
884990 284247
726373 203636
467755 944880
44884 54324
716087 417245
64368 482281
597714 955051
517401 129455
905711 880213
408588 70366
487982 30102
293877 79428
457382 791087
756114 273118
989934 452013
690711 631467
642334 431790
582638 751622
621722 258923
114730 786148
14734 483056
228656 562293
582589 945857
701036 34597
676645 791431
825216 293339
696393 557292
512834 945254
870154 582550
467355 666926
960156 537309
536729 776288
402745 179147
84239 850479
651195 105284
646822 452808
930663 159595
766234 408170
373270 935221
268914 398183
179049 826772
541644 985247
970574 60117
30543 254737
930948 472464
183827 746922
179377 522617
224086 377482
512820 239328
100154 20108
488513 914250
661432 591672
840383 850100
467118 10220
9403 855135
298767 140031
646538 248119
775911 94467
587204 264364
388020 492438
806395 332841
790579 661979
740763 214044
453037 940204
989762 711243
994858 54494
801056 248539
522716 303934
662083 34467
109888 547420
79636 845992
770561 15340
93716 194167
433688 980066
955181 149067
35146 651568
840702 382551
785996 691812
870346 203414
766971 920904
735949 526854
278569 39925
437211 895181
751728 9958
507635 204011
408388 223921
268737 602367
781724 701203
44732 408365
567267 149966
253296 358043
492535 115250
323926 15150
786174 24845
512708 616816
780537 279142
188830 98960
248689 885341
751380 288481
234205 631624
526946 562115
731770 233456
517940 869878
273336 89312
825848 745212
249123 448392
652077 507497
606853 482967
203810 15578
328295 561943
705924 502551
427044 731516
915722 44625
896023 378214
397632 418358
233770 288641
910305 701766
547264 158977
751284 541685
467390 561855
69395 622141
482007 586570
313320 323168
667438 398303
298581 785894
671589 388182
457275 502765
278923 98803
497846 741216
403201 980530
44757 333168
268663 99884
696773 825946
611452 323351
652172 243596
621865 397945
333118 542157
786172 11363
34871 567113
114394 880958
721218 601890
178707 45598
856674 551809
39947 964852
378369 840606
34700 750591
969957 840327
617293 337981
25114 25575
84296 656478
805957 721223
149044 432935
249117 551396
358397 458644
39366 189623
940458 900685
337974 263305
79774 671315
457255 979781
516911 816071
199186 681599
408373 104677
154060 24082
750935 69173
89346 716946
670997 587770
174472 388014
651949 357857
34180 936310
59563 791595
229299 586963
612095 159115
960242 646942
54552 512005
675799 970856
38958 979736
831002 218794
278335 751211
552127 597054
442999 39662
701488 830855
691416 735700
924637 865665
541880 766448
223940 457592
79647 298445
880050 69891
228980 155023
791020 621661
810562 969584
278402 532215
378139 488036
318802 965632
218878 995586
402719 721629
586700 761290
447523 557332
20152 711658
283648 716807
288489 497411
238395 965219
556686 59912
722089 159453
59815 377548
790769 323274
949847 357757
333564 940389
363175 770862
840421 642389
915854 173926
467603 915585
970174 955843
835415 502663
661357 925568
248160 308113
552161 378286
149797 178788
283266 214464
288810 781378
347690 845717
507410 417552
900845 641018
303246 835063
909848 930340
885534 666416
487280 831160
39312 427886
24617 672001
835150 352794
328026 224504
631818 562065
920645 288992
138628 343379
860740 348345
129176 710720
338686 577541
387060 10475
95117 189051
930656 925348
243957 860374
158928 63894
517446 810811
69457 223943
706459 497862
895533 413096
546902 303451
129705 184119
651376 791074
218142 766343
497302 74422
130388 591277
401869 203518
526894 353738
109361 785818
382952 90135
672449 363237
75039 95207
865733 586994
208301 143956
711472 372990
368344 671208
984919 89644
442423 821362
771225 403351
770905 606362
492156 945121
24694 486532
457046 44194
497062 199096
552747 179611
736636 233384
940178 750953
313343 89333
487577 566955
29144 587821
661422 646802
383250 134539
735762 601861
228920 626428
129424 791306
407909 179095
621886 780921
417716 427459
806190 905347
870204 84779
258689 970059
572926 20522
735768 466974
602051 268772
328136 840954
989377 79016
49977 74645
577332 517304
646969 770798
198687 407840
164023 403029
502744 800425
24876 591437
363339 541826
641401 547257
104490 193975
164344 920275
314106 84427
298709 781416
283540 327733
50280 287837
178793 49600
338734 383327
512080 716158
970107 313525
919754 497718
770921 835904
831334 363655
129440 666854
40932 253592
348775 283676
333272 587300
467362 59823
129537 901283
333229 512295
871290 552547
686215 910755
531926 910678
288434 507390
467999 697119
646679 447427
815778 627092
149191 736445
478098 98965
249221 965248
760741 825433
542098 896053
915207 806157
949857 925487
302750 19646
378746 407684
89912 626951
39772 114647
771206 143820
109569 606380
552169 622161
860632 194089
114295 552150
124946 303112
438269 706294
860900 343131
293405 899847
894786 974692
248274 9998
601636 880766
741632 795364
228388 791074
791764 373400
438318 915847
25134 686269
397920 915862
786315 979843
532416 552213
571961 737000
905681 9941
169073 571747
174156 223669
886098 835426
54500 49732
940146 99720
791195 228686
761008 407868
970045 791070
730919 527814
651429 502427
413123 222958
233549 546834
562041 457616
5314 467756
736466 442577
383369 412899
229163 911276
845952 890904
308951 467281
542671 119467
910220 443297
159076 482673
771063 826145
851049 751190
373039 626997
334024 338962
85126 283274
10602 776436
865370 871375
49434 79628
979953 259445
696518 796977
935336 502359
582145 387930
969677 183635
631819 144682
915274 135061
327997 945559
591981 527559
427150 20101
109870 144269
809999 329061
54720 115540
144746 691867
64409 14828
746460 970495
547494 756098
726917 372846
686695 24478
994212 656932
443003 556688
448134 353095
413106 680699
949863 900795
253926 750917
343138 64430
577116 168858
646632 527631
124203 487827
577430 791213
283853 228953
970346 506812
715983 741510
666251 25154
821105 627116
40047 925878
159324 60177
736217 582439
269765 497333
462641 651906
587225 810536
740847 9890
19453 596738
377839 209571
905338 338198
324147 715898
183982 318555
49226 44974
885002 954731
34926 188928
915447 312835
959999 488094
661606 248090
646592 667239
29549 368292
443051 328029
800938 124192
676340 253576
348626 576829
700884 696430
402930 58937
332658 183929
686797 358355
243543 124576
637338 676647
517408 383154
746334 781006
114852 15128
143967 59055
890865 562601
243446 363242
935958 964252
885651 815448
900375 631009
735629 741582
194367 64867
984950 771773
517156 193908
44435 766308
507748 965115
791307 14895
253725 866395
542691 522457
283862 442708
517637 482139
777114 213971
248600 751031
881185 541410
238193 188299
965430 517108
283501 79971
288434 19962
970899 109591
606706 79265
885398 383134
413373 860782
223634 950621
218848 611959
84154 59962
299345 497457
716017 267881
383009 39315
775426 24618
9023 457576
347860 801013
631497 433646
771692 766311
119357 856117
89799 388599
94648 696065
377611 980176
607545 677389
770935 566873
258777 49774
677060 4723
875641 547306
542526 74248
512131 607222
521826 681440
99221 259227
253586 691310
35150 462849
173871 358565
268921 597051
741313 348257
746764 328799
208524 746780
910200 183835
626909 4683
736257 317949
189597 836092
528053 258372
402807 855812
209292 597663
925009 611738
680866 845657
631468 940691
318404 223153
592019 765977
144256 442841
148668 597162
825658 378052
144003 164047
830925 512088
626181 751601
184017 616966
184296 453268
29521 805896
885523 164225
905676 622086
243895 259129
328434 239038
866080 417985
626670 457773
228203 641054
453042 278547
74382 219141
308667 945126
691547 546590
258674 15491
875502 921015
626332 607613
716768 353653
512678 467355
4668 920599
527207 433178
313063 766411
517027 427251
746580 253955
825298 750474
238559 229474
173960 108749
129451 766177
39756 945759
298942 99398
59558 582720
716603 239166
298940 288118
38929 447324
228733 184583
667011 700976
432497 45019
657313 959475
636845 552362
661433 49039
29969 920356
358984 337913
671444 318566
964859 219062
248432 223572
695940 676410
293709 183404
169062 800787
29803 94408
288741 726773
14816 681205
905471 233369
716696 606839
547177 666713
44438 313495
299110 393456
389091 959512
691519 740475
701051 532055
905775 960658
388665 845839
278499 656434
442873 408002
68654 104300
268935 527365
383158 432803
25481 139633
129227 795553
885770 652417
965921 84347
761524 79981
865879 975461
19477 771362
700995 9755
870715 372971
109992 79753
14793 627019
611925 855323
472128 233352
407667 537154
442436 80031
860462 901039
34204 442458
944960 328346
492245 632300
816071 890468
193986 34789
556950 777056
363264 850702
323000 4609
974901 566514
556784 437271
412209 463039
418286 228683
278942 617294
686610 54515
288084 367913
637048 10080
318739 99034
830832 790981
428177 338044
457832 198985
572904 417837
234146 99684
835887 989623
532100 964904
924966 44398
50349 721360
766012 547571
373062 790763
104827 248835
463136 801049
457800 880594
885955 278661
144798 911194
278806 438107
388108 532321
283872 636246
169254 10483
387889 134436
144174 178885
657062 601653
323627 397911
532448 119279
99991 562083
154012 756317
179472 417639
59391 428128
502425 905727
457410 865510
606840 293342
308966 512558
557589 875696
561760 463154
303259 208560
985064 283971
965223 263693
223864 482589
910021 14543
238490 417263
54944 188944
561610 602359
995577 74484
124010 457327
15474 850501
657441 825570
970080 571986
259326 945114
756714 363395
581868 682011
358441 741286
84865 253525
840773 949931
69192 20039
387890 945175
24479 721113
840232 169016
486988 846186
472298 209541
910755 626808
622174 731258
786451 726869
606308 865439
412417 666466
134485 567670
661988 840945
660951 711800
701520 388941
860842 786247
696272 457379
233048 422587
363133 755572
138672 477936
721804 453181
412861 919272
44227 517657
413356 691429
905034 576825
377442 16082
787165 402655
871330 741121
378538 850433
143805 318032
766392 19529
660961 253806
711774 203670
726481 94268
991012 218923
278875 203569
467756 830946
582388 95660
219015 507277
144138 984840
184345 412357
84429 243386
368582 298318
646649 915101
288963 915393
253000 293178
666701 776722
144314 278744
407203 791305
64701 184240
243888 671088
736407 542480
855134 870843
402784 885288
547624 128956
557404 861209
581904 870844
880793 432840
347662 438085
149033 607247
233743 428012
910655 686736
975461 443361
387479 672062
264607 288201
686720 492160
591799 259214
204215 686556
795948 755616
756288 298499
541351 208699
706283 552223
457634 855325
816482 935217
835726 856062
50208 68913
627040 70144
183247 79487
307860 835494
652056 169331
712071 462122
143623 572562
164375 238345
70214 203622
203801 637105
840761 910672
711458 785958
935876 264127
542478 537171
338800 786385
860729 143556
269159 387772
631509 452628
114240 183570
477797 224680
605791 214400
511990 447343
308365 572049
830709 293754
34831 552083
731655 89327
397593 203941
412894 129370
278535 875474
138661 506682
517259 263124
586883 989917
800997 849930
979715 377792
258531 900400
263309 715772
820613 273362
194141 413259
447481 865856
239144 134492
975473 715658
751324 40134
960201 631479
388113 229072
119189 825404
30700 842036
612473 333444
69800 925926
233821 765407
438245 14312
34308 49837
741213 373185
288412 482458
472379 228436
547052 741278
522089 736791
512540 696275
179257 766552
99339 452559
816776 632213
985242 40328
293070 323052
980364 567891
79277 154575
602244 457503
845937 304070
68747 497786
372782 308737
705943 164447
79200 581898
676905 755471
388653 985387
577190 672219
716544 164025
387826 308005
218323 667088
272650 203735
447558 293064
825766 905517
895363 845400
144205 781270
418350 259161
730908 253508
433266 592626
213493 388243
512262 881742
164313 109609
706347 805249
69619 617303
750800 422791
940195 736793
781185 566765
248844 228167
791224 761164
463291 631732
771152 880452
761554 263406
25165 751097
74449 40661
118933 199991
651830 711217
661672 244165
473638 726522
143695 308374
278503 74486
238598 383450
323194 382599
925565 428144
706626 656381
736506 661436
636328 487246
433049 885501
875997 289012
586935 378316
49144 332817
40436 54757
432901 124367
119684 333288
860954 109158
468352 964945
622355 44414
35443 626860
498083 761882
986201 984866
781567 467110
950452 293491
209768 203687
447957 855446
824973 347761
577452 482583
418274 816081
641489 851105
929777 104217
89989 666838
98853 99168
890666 597276
806110 204539
960039 143761
89214 393148
805905 452239
422843 651507
771135 915700
467240 512846
189749 756530
109311 104382
601284 223338
506841 129906
144049 771500
482845 402702
656943 318007
188940 447574
194466 109633
263427 661756
849974 771328
940177 616817
119463 511995
612159 686652
477513 194204
770850 288562
537145 29951
576315 109007
825995 856363
352753 885346
59564 159381
696507 119963
273405 49766
183921 471794
865661 113927
508133 566705
467882 392488
483240 964656
596959 890418
272968 178551
949674 766383
184623 397536
572041 715492
69093 124483
864940 622451
925472 900229
372913 572857
233527 761688
482658 417813
169949 418328
771239 148453
995657 472848
840644 10178
423071 517191
711058 516619
617238 298321
288818 277551
696289 372937
383384 895673
601809 825277
820665 517051
129102 462407
148828 413118
905545 914415
213595 468227
78919 905693
437279 930486
58751 139964
562998 30311
985503 368090
278595 890600
765482 54334
288865 377805
930200 741017
706645 537228
24639 821519
920007 378138
890755 269127
119153 836230
681240 726084
746082 208881
926161 695703
586812 59591
711371 45377
397097 652496
636473 707152
64522 627579
388145 850328
686377 677329
637033 795472
631914 164507
313423 870703
29771 657347
562317 19288
995283 19801
571942 238657
44611 303645
761469 398150
24254 149260
239752 108989
806375 189493
532819 129097
636396 448167
831019 960457
994782 850317
288896 582213
367406 756100
303825 467111
587429 875629
348593 521735
497323 129525
447485 253795
785947 337891
307785 198715
761170 278903
283549 865584
20143 273116
79272 527926
756170 218743
179257 860343
611667 24145
15138 910185
726843 945015
981051 979986
537151 422389
59087 45336
313018 532332
363191 268300
741019 786176
741535 353307
552208 64639
944792 955085
59131 881122
626854 810988
920025 899937
168795 736354
582051 472575
114276 223494
796118 775689
213925 442655
592021 114885
547360 482328
855465 109019
562152 667086
308618 756767
795425 457945
353349 40335
572086 342747
686921 402893
273173 452606
582152 586908
890986 791316
273429 533030
422950 497201
69059 785494
676357 860966
243509 661330
273913 113804
218963 353394
587397 452140
552254 492159
502393 542237
104559 467749
308633 298538
283135 387894
159310 462463
581953 54675
990224 109894
781370 820810
323621 388050
213967 457950
422733 179313
711192 885048
886222 4698
523155 776399
846026 149555
462628 378433
801470 388095
751161 99956
443698 199059
662106 726998
437834 175247
84418 687013
965306 582874
900930 692029
746066 571869
129285 367813
567041 90333
612685 606346
682147 692105
422879 133884
283684 994355
547191 153845
457293 318221
576297 781408
671421 507350
109914 368655
980100 617597
591737 531633
44738 44893
353163 627358
508027 79582
213927 587430
238882 790479
378206 94761
711290 74258
109381 129721
268908 342824
686424 348167
606823 994833
253986 940343
4489 810921
49759 885310
178972 263622
890336 577086
4507 79469
307985 163954
99023 730824
870560 626120
189678 387739
985489 178652
587084 855508
671298 323265
969795 522507
636723 328030
417536 865411
49761 293192
781019 407369
223966 939681
5256 283300
149300 775649
403398 387939
402864 542499
597114 169035
328217 577318
488308 716216
975929 919715
552128 457995
358257 199147
412706 706126
417494 760943
368246 776279
940706 582207
228451 985215
457473 89835
403200 34898
780537 188937
10288 805758
79404 199229
318294 860624
378161 273625
522600 979419
75296 358808
492462 786362
178701 313216
338350 537450
388202 352682
532339 776339
69617 686709
313445 70295
791466 686267
582579 969966
950011 919714
203560 850396
54667 54389
268253 392218
184515 125257
890423 800755
243786 771377
984974 511694
104282 348287
562705 607924
687273 84441
601917 308680
29970 666133
158289 631876
318395 84536
149335 502394
354004 35235
372731 299016
880594 687019
755835 681882
502551 184169
462777 845481
731650 577486
229499 636984
54397 487831
810812 94125
249203 492402
169591 55295
626761 74433
606574 70977
626684 94064
129337 561559
646866 522716
139127 716794
816318 537823
367541 875736
318302 89656
263979 412489
711885 666664
701602 666609
477302 59852
155321 955324
795620 98959
372802 910522
49293 50033
810681 143944
95051 353398
288605 562224
790725 741636
895078 134001
706932 825937
393358 631945
273448 63908
801306 233166
557345 377938
448234 448181
472328 910437
448377 482048
528072 955254
238742 248579
372528 437452
775916 184315
741230 113779
915118 761006
980200 408575
58428 954840
44199 587170
572426 616095
244342 4770
228096 502632
701623 541961
536875 408501
155201 661372
855155 293947
596945 426905
447875 49068
284182 243209
482837 158818
940072 388384
312720 268190
482985 338359
178885 810866
313904 313386
632202 656576
825760 766427
871040 541843
357891 736074
890240 567324
597242 869759
203666 45463
865912 552051
746002 721729
209327 532156
671381 433322
373690 528373
980179 387755
980903 526688
542348 233614
239350 457497
517422 29329
139242 910621
4923 234360
59907 666641
89259 194915
989884 457877
393586 785309
780689 339086
89066 79759
765865 756027
899969 537357
94449 761100
816330 845412
547271 994760
388223 815685
566680 65110
353495 910964
134424 711530
582528 641333
378291 413290
517447 990721
826077 870848
815768 955169
288938 710876
392704 139910
964533 537094
282699 964599
219311 433118
914580 123381
785943 293593
890606 786028
939960 322487
706523 686485
35470 895275
432928 94107
452689 631711
830910 24652
134391 715958
283772 815806
975579 810351
94357 810610
219595 154469
507289 59607
969512 845921
940826 995696
467491 771578
373640 920933
960211 865860
562259 9464
297863 428140
756375 432614
164299 307670
208522 273329
815660 279296
776355 835932
278987 368228
13862 637129
44276 463028
552302 979596
611973 735901
905422 228652
507742 110181
194027 810648
905810 740969
388417 880738
133961 322943
825797 64808
134764 462638
188959 954744
80170 795909
258491 382796
293391 821427
174545 238340
547153 487631
387926 293897
492296 970029
706106 890803
437915 24777
75732 258706
473476 393038
363056 751118
497815 930144
856074 327917
632322 303555
990427 238349
144440 760927
980136 238672
39440 383070
860455 99458
512738 193820
173387 636974
487241 994948
517427 248903
398969 571839
820149 287654
19956 745717
134261 836103
39771 293333
164494 433539
816058 477563
835862 104692
761338 771467
900998 139389
706179 930358
811450 488126
398260 950027
313574 920386
696066 309009
40719 99430
482390 671131
835773 274177
751127 482768
577064 771564
909979 796271
900599 403698
705928 54488
851365 318754
557268 477828
666403 448105
845781 472763
806579 900106
855742 771157
780754 830805
924937 407692
319138 770842
168471 397187
811434 681773
935356 765440
204190 387700
856238 89155
317984 238562
726690 308697
766021 915276
606941 308715
362996 642120
214364 89653
124171 313419
757253 314147
775926 254219
741247 249255
154532 562548
218703 880242
890025 263677
980470 931101
965027 407413
890835 975414
820799 925476
249007 188920
886032 348242
785347 646937
945414 174071
731710 720784
193405 457834
676490 437583
730568 337741
438103 876141
119251 357914
856088 815377
860824 392551
452516 955376
874969 667266
771577 776611
521753 785494
696288 755633
189626 139114
477642 29633
701695 60142
189006 607138
910852 363456
994419 148491
756230 253677
149158 631387
532162 936073
248427 373172
209310 333207
120055 974939
431800 79757
363068 213992
632243 517159
427835 522708
363131 955014
388240 313088
303312 741251
462861 910402
442676 523144
69506 940630
487058 562176
960324 939928
621540 900267
711281 109386
597078 875867
69602 716837
39438 49944
960255 372953
746429 597361
994318 825456
114709 463494
403089 616913
766060 100177
533028 750889
273621 622166
497463 373871
144761 945609
69192 934628
985053 800704
388141 512718
332979 776381
363361 736311
736415 372761
393552 806764
74561 975330
19037 581637
44823 596787
219899 616882
477940 377358
736927 885570
965397 294253
134489 841136
677299 40821
930405 617349
314094 746443
527621 94474
810598 372973
477369 367759
155131 995303
189367 921001
258231 790973
925876 323261
233439 238812
820426 806022
955178 955663
169172 646419
666388 483270
69352 885049
119508 273627
253051 30404
14701 467243
736362 308059
238216 442416
631589 229039
646611 114128
34798 945094
696181 537049
791007 915593
209501 363202
885735 223689
995397 129919
980750 657104
168303 269193
73973 229243
602739 602056
691705 248983
467487 930504
183861 846024
800139 304344
696538 760833
208075 208863
368651 144339
397488 994738
407885 665926
841068 537378
905507 298844
178588 651157
169497 143297
820533 855502
945376 975653
557370 915304
163464 696964
716030 109630
657066 975450
109615 526923
959548 984948
656736 452995
24288 542455
452387 333691
511992 507176
512203 905188
741969 45199
49771 4956
159540 348513
990276 447594
845625 959547
975395 995711
283851 149599
865070 731542
323080 478070
989823 523084
692110 243875
234497 746061
612355 49232
790888 552094
342953 427938
681670 721195
815631 398408
602136 29589
482695 143662
114558 134200
427864 886606
194743 442936
253664 372821
273428 671611
393153 278487
940802 124326
343637 830992
442447 30358
259164 577406
169066 960428
830660 387645
751476 985033
845972 985079
34499 54654
477799 248116
616542 427731
975272 218664
810498 243984
627240 920578
155266 611999
626551 546873
880046 427756
457057 726255
104971 283701
795877 686830
53996 174243
49569 452843
133867 333389
741455 637156
517737 119569
264791 681142
178709 223978
602286 722025
974281 955538
571509 945433
208088 213618
871560 881166
427880 800307
308220 64022
239559 214372
114639 333186
541564 358001
263782 821973
368693 566775
691600 436697
770520 801614
617180 378112
562681 113360
970367 248586
493173 732303
497876 353345
626473 438231
233813 840344
502948 179376
468044 29288
865805 701915
124305 950409
731029 502675
427765 64110
89852 258996
929914 477082
770846 855698
761043 477460
407704 482344
412626 139250
9485 801046
701574 378373
989411 493080
482349 198954
148317 831344
785881 950463
417661 751361
696659 422439
641786 158783
94275 278387
69593 736609
64721 318674
701900 611777
358845 980111
676639 114499
477750 298567
79019 407535
20118 114230
531856 487984
980194 502206
328141 975289
850739 985428
562434 989673
15063 239142
45074 233807
925491 303225
875577 930383
602201 228059
766601 766086
716210 209009
29918 800802
666358 636453
771315 682153
994882 766174
850471 144562
870565 54734
567122 24415
482400 318243
537639 969988
910365 168965
89038 432838
597345 711510
835866 736223
602076 373703
940087 44244
582165 273148
139742 288414
706808 492255
348039 602012
984956 577094
945150 258045
74322 373661
119021 815947
303459 895859
900739 651259
849871 806091
134267 467292
284180 74535
546743 35495
303243 880105
348127 417681
542261 920149
582171 457183
641168 785938
418110 447759
885592 204077
935018 259262
756683 552193
179302 960063
114333 691363
591439 731194
329075 815609
676936 148694
99533 566701
934702 725845
522347 487646
312867 790942
825915 168628
223510 577274
323432 248959
930518 751635
258910 865958
776564 154654
397463 806165
254258 482490
223869 303469
895454 54828
627799 179518
686169 149414
686248 810083
238882 885682
860697 925415
55005 836035
169460 154096
123663 328149
940123 10489
851191 602281
268489 631071
149018 24946
417956 39827
303646 870910
756502 792114
557349 805870
19703 805993
179154 916121
965864 198578
766438 248932
139611 990027
671375 885411
238511 601882
20447 248795
407636 49490
691484 328766
50060 448282
895666 104063
592306 73974
363324 512642
587550 153979
238385 452412
483247 5242
378040 293430
253926 731629
492756 209466
616574 104812
552300 781952
184564 816581
188587 79226
682055 741412
931351 462969
392353 901161
164285 561706
39579 183513
367955 607052
984726 740995
870312 413056
771287 368598
851363 274008
656623 219781
467499 233416
771544 720812
189471 537181
423247 915395
45480 710947
368185 795410
318117 263217
169100 124561
398054 25388
581792 895575
437928 611155
984827 432632
626200 975812
934609 910260
408211 851277
696712 880449
318849 876121
134803 229069
387987 871454
537274 70169
20168 253770
467963 836147
363881 636786
84244 164309
438129 308586
129097 870582
591871 104553
855103 98850
491775 821389
64275 632086
531752 538125
690839 721552
591542 591664
602274 337886
880745 148445
353379 905373
661699 412231
512217 517555
133977 10318
726624 482538
358903 432966
198426 856190
29984 636464
267994 218539
258633 507681
521861 596861
562536 109592
44937 557026
970531 348267
606729 4293
129460 193743
656561 701692
129009 254220
895356 542593
79589 287991
348645 528252
308899 294155
846101 815811
199273 641727
840398 363020
229366 314077
447224 184303
224190 631000
626860 328771
642037 308270
427466 671759
557103 736246
313566 820266
323110 209349
353494 14756
636933 581973
945097 691497
407961 900653
407589 239584
49717 766171
566968 418578
995592 169352
567335 775484
308313 348504
601936 950556
781184 512784
904967 527972
229043 40083
989727 188642
547470 463054
492301 816516
79370 775498
68428 955293
845573 895745
283647 701436
572090 890902
496595 631562
587733 671703
830414 457651
293227 114696
975464 432761
90045 905510
875529 219150
203998 368604
457449 452598
716626 721866
665977 299053
752070 168900
675384 521791
10226 4877
572106 288325
606900 105439
30406 457741
154335 44256
124477 452572
64516 34507
990467 501836
955380 353307
736767 901030
512079 825842
915568 526792
706968 363446
377758 145166
965629 586782
258685 288397
920020 685932
586797 572383
512257 651524
259032 238574
169124 890637
507783 974766
870269 662315
89373 288953
591813 144221
368550 597212
392975 133940
814543 248596
810531 19339
859778 657361
164495 840302
44883 189826
437658 472748
761190 795881
736136 631665
99441 84758
50603 866054
313091 372617
502498 299012
217829 741663
413041 278822
582687 467751
696645 885865
591977 358574
690808 24551
766043 358243
463273 358898
94317 646717
358398 79585
338432 358391
30641 651892
666367 99674
631632 537036
218820 174120
905268 218555
552223 766414
597843 143815
124648 861012
701648 437488
477489 910422
706561 845831
975943 40183
114509 522191
378179 805748
219626 498016
795661 194028
919831 423803
566938 153637
188931 149147
383094 622204
486592 407993
810757 547351
10167 308819
945340 835847
363832 950307
173695 975000
457687 780966
244578 213803
239044 264104
44585 502379
64339 582031
826270 646316
278418 566749
741356 69284
14870 203281
55522 417816
969662 50138
153926 30325
468062 288651
836203 347927
159513 223976
865451 383446
696175 895352
791127 189275
93525 39498
935705 561205
855789 472749
988370 398058
403243 567252
920437 357629
994260 110062
985283 448090
900741 816681
755572 183744
527454 816637
975399 343536
248458 253689
521814 656298
766076 641570
422530 612057
159144 526846
49936 716302
104312 293907
552676 890308
308602 731189
278691 591800
617055 203507
755555 442356
939886 403508
980414 328792
373265 229177
881350 19650
183489 477663
944714 447371
979451 268318
64210 129171
59712 293750
751167 497287
373662 49911
666714 706507
99848 149015
641868 930516
486835 531829
229153 731147
447582 835018
517501 94462
541543 756092
975320 189317
359214 498170
59567 850379
407678 651328
293837 522350
521819 59646
433535 282644
408124 497887
556749 766417
884906 338594
149169 800833
685957 342949
756452 612318
586823 144992
974706 502861
687181 800861
139127 880755
939965 348606
970405 467840
457707 54945
323212 512757
721305 69692
243670 507847
233561 204332
25436 59348
920270 646666
924899 517093
949855 636921
253133 701169
60044 507794
527564 338887
476861 860035
393589 173827
263705 905195
621291 402527
268879 328692
323256 945517
184236 437573
39529 581665
94808 592088
591877 541914
362940 209272
810839 288476
556919 104539
974859 5172
835640 890864
507794 373407
626343 506953
835641 173908
836230 925148
925299 528010
756664 890870
268924 975484
204599 645690
771248 228962
571985 363163
582199 856016
706925 642132
800576 517336
681562 338276
666597 825314
492518 696516
955442 572604
452765 204051
920720 393651
681698 313256
303584 501958
581864 557360
895794 557368
417750 925331
825825 284121
204314 218952
443002 795527
771207 338721
577210 129747
283119 268268
964917 736291
264822 567477
358528 193182
601980 776004
64480 199315
721513 796094
934981 348220
235186 984967
472863 736427
915052 940188
333194 110106
333189 283645
278802 149445
582093 288821
950532 826014
352997 592091
845561 268346
89089 273785
278925 830690
80060 950202
896496 855738
851139 224098
805882 383404
343159 99629
915373 666841
865985 567238
591577 492522
363492 741211
128320 541868
517175 40409
452564 437892
702136 601882
88909 800796
760923 532548
964931 889971
313323 979971
174393 448243
456579 786460
581893 104576
806297 865859
547781 119080
298598 253456
970056 323476
685977 49283
129545 830876
407500 527803
915813 422390
930686 443011
606892 606908
318495 766642
343374 592048
55084 671835
467435 293755
203168 726737
716423 322979
452240 751588
586418 104235
84883 766329
641623 980722
69245 586861
959759 697010
442316 268824
363814 517726
169717 99618
153517 721600
442677 84839
263234 587646
527488 586510
422704 790563
656596 154867
333023 965152
930242 233572
995016 478345
9799 104528
34869 572140
821233 104452
536857 49778
198762 706997
154377 501482
274022 512435
169171 263503
671844 856078
178867 806287
39412 9758
831560 875959
94104 666217
815587 661812
313537 134856
189601 989659
542124 268089
323217 293408
119464 248665
293467 656588
806119 253209
442786 388070
174184 646697
45042 40604
934825 79886
571810 603220
785833 388077
587034 885856
34922 303718
373203 452098
951073 263385
233600 910265
576511 134826
810648 567379
383407 99378
493488 158793
865758 617267
621707 766467
910349 393087
253743 681818
860917 273122
85062 959802
691324 975947
616787 417929
452846 64473
651289 830887
860878 223670
616438 293549
855676 148795
826030 248042
452362 60055
388247 456589
721306 477189
731118 318431
75124 4195
204228 303222
407559 617409
388033 368026
825284 601370
602081 815655
338607 626923
39891 238588
810907 264458
393039 447650
179124 576487
60381 392660
697303 358604
239320 870893
979684 845694
741671 606969
89591 805167
855858 885419
343867 676386
840576 159510
646525 89465
647329 980508
382983 875350
368392 706930
378058 443018
303779 248568
124500 537132
14472 398623
139968 10430
279282 124247
373395 44442
397324 785235
621983 960647
910609 188694
164236 49748
113921 612357
387862 472754
651975 83916
667467 94305
890373 188763
54180 592510
557703 74362
39843 502836
890229 572748
99314 169300
720839 14528
765175 89430
656357 483219
423027 597102
671606 347907
637119 701244
482532 502075
507608 736855
198691 646301
149233 940433
606873 975599
234039 487019
566994 701522
144245 183725
453561 686244
652139 139222
9607 786402
289319 850448
736466 437704
193643 372693
890172 60145
507011 168589
388167 875474
442694 691579
99783 164395
855767 29826
134244 144838
617357 219098
154445 865628
920425 811338
756592 74641
606433 696798
781266 203992
850368 801115
119573 452282
318262 342551
816258 84412
49325 970338
517525 975302
308786 721186
388038 149210
934950 552189
219064 5462
716800 715790
676745 98766
368205 532268
651379 293607
368515 781707
671579 705734
169331 896240
44408 378049
258395 959967
785331 69592
292828 208736
820616 631670
612415 935073
586029 841000
428029 815957
627332 985759
542661 463024
178954 214038
890663 437865
75100 552311
337996 775492
711369 29887
920233 945031
601803 765700
974557 925234
118937 478134
825106 173645
905425 55547
537652 24537
795697 214019
662296 407916
303586 124646
143832 79847
790788 601624
123924 15183
487748 103532
169442 422939
69539 841540
591710 213777
920869 373098
731252 308834
597326 219103
228725 895692
765861 880588
233448 786439
601915 352880
477571 208630
696268 203522
154012 870741
547463 353232
865458 800619
542103 69752
44577 671378
701962 259147
343396 835622
502462 49727
547278 239090
974787 507323
900500 333576
30022 875864
199268 224460
959611 218939
611846 542049
249075 985368
895781 462521
418588 726047
706236 234249
84440 806022
45096 482908
810698 492490
621910 702158
592248 383415
572558 870356
567280 919922
716372 194661
491856 192731
471947 810364
243642 900042
294708 362227
885815 129079
328451 547524
985237 860046
940158 692465
59466 164596
323639 189259
99931 571758
746779 168993
776574 745988
109233 612384
254465 119740
293552 710841
163979 766170
611953 69794
671316 229598
283583 363096
930630 333280
597041 203002
646418 517643
173599 383089
726110 293186
695842 258506
244224 572015
154491 83701
632296 108305
919985 149076
940488 761086
571713 576687
437789 438062
527051 402642
980281 228266
611553 626300
970334 786118
332940 452950
670857 537139
20338 358231
990113 776598
333496 209266
791095 522569
447920 592281
551665 198637
89391 378441
845318 338254
666455 74547
471696 751575
373714 114793
920273 980012
811208 178676
871201 94188
835266 20156
203677 661761
547136 258670
602779 447940
621526 423440
377949 427194
940450 248607
740948 89503
696096 54905
69326 29728
929790 59891
417470 213505
144284 427815
4878 224228
288631 14845
393562 308870
352928 373575
521909 994925
572403 800275
69506 860781
760875 990347
507106 696222
850544 939945
19991 517646
985355 199101
452765 771762
726195 29405
407856 980246
795645 373138
826603 577371
198658 815616
353104 841132
278743 89153
283980 935416
74475 910648
170018 109047
174601 393378
105056 865572
721444 393082
541505 110096
437578 64922
303899 194218
985273 397948
801874 666539
263476 248975
805677 109028
581979 477022
78847 19852
592572 974817
199006 54793
920023 989872
557043 662213
312738 741808
790875 363287
696160 184560
775875 890254
357811 984695
413049 307979
730447 671308
263486 113916
373638 611291
964858 194774
253491 771903
64709 770755
915777 726620
711310 845764
143691 283358
785472 139548
835803 194627
945195 70501
970831 148186
861123 149265
443080 154048
352448 547688
174256 74792
303241 188748
929940 985886
612438 961022
109016 457387
388381 835641
592345 84234
686413 507841
521703 507044
576548 935328
731111 562761
607120 840879
99282 507528
870412 561817
821197 437859
75139 582088
347781 676474
154980 900089
815072 547570
44373 402976
841178 19415
432775 930724
438202 19675
660980 934978
940052 303559
173796 4812
453034 368034
49385 362871
343532 815352
199119 542974
865832 183950
945155 337556
184085 258436
731542 756212
213752 915643
133949 856134
104493 174781
641892 632291
442464 831315
596789 502117
482863 606901
696374 14579
363288 79325
278735 800487
911020 342590
438346 462507
835536 327730
314021 184650
248826 14538
109954 298866
238325 620978
452816 671709
855831 347853
452478 318443
970308 746321
611055 806111
482213 119323
841101 885879
169924 482646
676147 720969
696367 343188
59530 855664
979699 612143
432199 357756
49117 457481
442931 765817
984175 476925
114409 801088
642062 914850
347387 203768
408474 134324
24509 114763
581894 577132
895340 333091
462962 209682
717100 890540
283215 403418
855620 925787
442997 129517
826276 710914
114394 894964
228406 24893
144990 701952
194637 143940
129191 786206
323634 815278
283578 109737
4884 70088
59361 188309
74830 423497
567401 935690
49721 258751
582017 25083
308559 676395
462212 661650
800858 900466
482564 796339
960624 293945
417844 199599
407695 412640
636286 4695
820113 312859
611887 811161
636680 88935
457450 551878
816253 267670
437545 298372
363428 139146
502756 387784
777179 791685
373221 463026
507450 104809
944957 979808
636850 348539
89665 198904
801621 651523
721376 89009
274123 756104
511514 929694
109904 641876
925458 710982
343069 34124
263879 835645
437479 328244
328365 308702
801505 969674
103852 696099
492625 164504
154228 447387
626256 139491
567068 332899
138825 134268
845793 672263
323213 44563
238627 835288
139395 890687
218487 751203
75178 905583
308040 687378
467557 851509
154442 69241
552808 940302
696637 641621
757148 412742
175183 612051
323591 631269
114463 433099
85332 865779
29975 243174
681173 522520
99801 348599
442786 488174
487001 149610
239104 805347
477897 357909
592010 944445
234276 647142
950384 244055
467546 193769
751457 412972
512891 537115
731433 705831
667354 174227
596895 915273
861050 199291
392734 741427
606614 796057
611851 740961
940729 935127
960602 199425
74124 820353
314324 537470
656773 99504
362724 532519
528029 9981
865544 134659
710862 840151
258012 448165
875298 916134
965446 865820
611698 134297
756215 814946
871180 885622
641354 895324
761459 467793
293469 34928
766478 750644
356824 492371
79790 841160
632044 721561
925826 742010
313737 392720
587365 576778
527516 387656
338782 676403
617118 706437
277369 726959
671874 29217
796119 990194
328545 825912
631377 900574
248579 348298
287896 318534
561970 298565
14967 218894
856456 577397
462889 278855
766220 591685
104759 691972
547632 144635
64636 373123
344134 701128
458197 760449
388178 536950
696433 741618
851293 557418
228928 407693
10378 49265
244268 169270
462973 328855
358252 473477
338169 298401
547686 750714
527480 542863
531975 258309
253811 910120
29037 532441
163524 939857
242849 218091
333890 955315
368366 552288
563249 587133
184337 562471
368683 502255
915421 477278
979894 113741
129151 328732
506904 760798
816690 242979
407522 775907
686340 34544
870610 745444
114892 487504
537855 925004
721737 681631
79536 219392
179106 661940
213703 756007
631959 278787
914826 935096
229613 666737
546720 417623
283497 223753
974751 362556
934750 497467
855897 402899
636823 894854
14889 516848
123853 94799
452524 547042
995059 64268
601736 587159
875832 631848
49504 114580
134000 701127
994172 143864
179187 70134
994899 387727
880188 770790
726046 418226
477919 895343
487497 40407
79695 919894
423027 477497
712132 194059
477573 402992
368164 627186
826561 980314
407603 213534
492796 940293
840151 915428
959885 308553
596925 413357
308834 418132
497857 194201
940071 567433
358086 825961
462960 955164
472224 189297
791243 880111
632137 795663
717011 700447
34913 9599
94684 735953
208649 801044
801251 885451
243714 904939
202813 84502
766120 243213
970618 258908
995302 69852
840277 253419
318362 940343
204204 536995
333160 219107
771680 552017
89799 24902
651509 119218
35371 949984
238678 761551
521941 347855
716541 815981
954970 626689
218385 686899
656846 407494
611417 759712
696972 781463
865406 367825
622598 319111
308282 641600
278889 562646
865803 423132
497896 610894
94184 756330
288374 795770
94444 706706
193909 835505
30057 148721
199479 974014
810846 706338
611224 29745
297959 955664
532533 587539
412915 905602
348026 706149
184276 343022
711914 263163
865837 258295
283995 621675
964988 796283
626596 522232
462356 507806
576772 54968
855593 841177
298218 532745
910738 149659
473145 427599
353476 846143
154176 592549
372709 323451
681137 611761
935469 387920
980008 891342
308434 960177
358566 248915
756299 592989
890630 357732
876036 512190
646847 312900
153687 104669
199739 696466
189617 965407
124331 418185
617239 114456
347980 964322
726916 234254
825593 532564
607756 750763
214054 437674
397330 865429
621378 935095
169111 830095
771092 19839
382912 562415
671684 736619
825924 303044
881278 691615
398171 253092
318030 904838
821069 786111
174490 88746
472425 418107
677596 368337
129281 716707
25015 651533
617469 810673
328260 512378
353359 278634
885203 249339
552448 800415
129574 920140
423592 427966
89256 944708
611790 617036
795764 308211
258621 497340
766274 179339
244376 826023
964324 895653
94328 994646
362988 498014
318163 502033
254137 846041
990164 89647
671492 657085
353268 915555
417528 203229
885776 691497
269120 482042
308575 258358
73856 522250
617182 607214
801741 567185
810740 308744
900368 931080
517189 691317
69382 323428
288313 417798
855480 965370
407928 805870
785247 448037
259178 671500
781286 44908
641949 397219
323662 681838
268894 676399
647162 820656
547436 930623
4484 4959
606782 278891
263074 203527
686660 4550
572261 318727
358296 153827
801532 622207
24585 790789
746169 308336
224188 297944
582270 333553
612108 313036
771170 960421
89019 84728
716838 831019
890163 297901
69939 378182
433190 840262
507828 342735
841175 278333
537604 890350
810913 726082
730431 49892
139584 389024
780819 453100
562721 765481
537265 955470
745431 836324
208962 442351
452442 805314
636930 616698
453480 889934
925142 209077
482307 542989
522337 183463
606985 19641
443058 34859
676702 930285
557226 114248
203825 397473
531958 680760
562447 154185
860627 636298
840696 457874
930189 75015
218097 452281
806756 10076
891087 219377
880320 10027
427117 99699
467334 904884
531803 402948
760984 412263
258314 825907
781614 666902
801216 343240
412996 333338
393493 950894
363467 368256
338086 174393
253534 368266
736153 497485
994608 592210
284077 721488
134250 995639
229273 422773
542962 413030
801193 314514
557571 363449
432428 960215
109889 133989
43982 920603
711878 651637
815417 482382
805400 671465
876092 203514
641616 945602
805996 94945
457642 721063
507718 676772
278507 30347
811000 671796
681735 661171
776291 103827
587452 9927
123710 651586
875505 696624
492508 925446
393242 413569
735570 820515
597128 785580
845773 413109
262961 50031
537575 333289
9670 348466
900505 268633
382311 861122
591742 119125
338293 865725
407867 785601
338906 527319
198866 313318
856241 895569
422541 676128
284284 502345
268395 80178
332436 735916
989932 861070
452855 174479
860753 9598
35086 417723
895445 478124
199508 433240
661847 332137
920270 637545
104461 403102
412988 104020
617607 945187
751087 308679
392690 99554
627038 722019
203507 358530
885648 55431
184571 880450
736922 348157
790976 990089
795911 293638
19818 736161
352779 158984
303015 94936
218988 930327
134177 915266
761374 591927
766844 681449
676986 318526
169058 551958
219290 313436
553031 422830
442635 139905
407842 756486
447815 109515
556229 587281
54684 741536
487612 194357
75286 994382
298665 846261
592032 856216
636796 721513
348369 298927
944632 457432
274276 163645
522420 387696
916068 810007
721476 581767
696225 438169
298311 825771
412774 264026
572190 960358
527277 929951
935849 393679
547158 19987
40490 233837
278624 423538
860663 641901
113882 25616
706007 74592
915614 771108
965584 944311
452710 467293
844890 507999
695828 149267
367991 617215
772252 966335
45359 119795
636713 194762
950023 910882
924970 726440
582568 616786
536961 691833
795966 831233
576926 477303
94281 437839
308199 785860
934692 189282
975372 865829
358165 238884
891119 647038
572556 199473
59394 831005
388005 517271
512931 153969
571234 924423
975286 652179
830255 412660
935449 557328
860217 735871
741650 631985
680952 602052
134188 905295
949966 810848
945144 84418
746572 894984
154224 607258
816185 905616
183239 657239
989758 571696
980807 771159
591960 288571
865959 845551
880170 423118
4639 652228
343441 333374
507216 179059
228772 29591
49775 984659
815539 994918
278126 691467
695680 930118
338511 413872
34983 333295
343775 238660
307829 566667
731620 442700
562037 208238
795345 627446
223831 615940
641727 696613
468520 761210
527355 99162
990127 870969
980601 44400
213600 502471
84462 771223
35599 920137
348262 875075
164305 552117
482647 209041
761705 338507
651939 59312
218583 651330
632128 104675
551948 184161
815399 387951
398813 506957
761498 567142
785864 452992
949634 297869
282915 725974
472741 756291
820723 995456
775941 74729
308548 99332
342711 228875
318238 75109
73820 193970
831355 233899
353660 636988
731127 144519
85091 845731
701914 69919
352521 517021
10003 473122
919646 940141
785926 735983
746826 711330
198743 786563
223750 164022
33969 541730
586868 219293
627151 124567
810472 851038
229413 577416
682108 989880
99591 457711
537462 666665
930732 29289
118393 915372
965017 214492
701314 408385
756710 944812
363546 413729
69658 741714
64111 492819
994636 910486
118773 820391
800327 25007
985332 920577
591701 39215
930903 378530
925112 542107
208901 453191
552287 368223
561930 44923
214023 861042
686417 666481
879967 224348
985173 811317
263500 297935
110101 646596
34838 791698
745499 159755
835324 567338
288360 800325
671499 611552
169062 90135
507279 523187
880303 955659
483101 258516
820318 715708
348422 323722
199202 328215
661748 786208
298117 208815
930169 403114
810903 691900
616980 124406
970412 55008
502756 731323
687142 706228
84340 880308
473112 627172
268083 737025
109336 313179
169354 433081
397721 432893
223600 258433
94906 945112
378428 168587
676719 870515
198985 169685
372905 388157
960056 955338
427628 218450
681921 900367
298228 626248
413031 652241
293447 921193
347847 328349
218193 447005
970218 516771
284087 780682
348534 850473
363364 611707
69753 198931
19394 343455
34697 901518
646669 791692
363464 522546
457148 373253
567665 353485
956098 517084
35246 199031
328671 353103
970994 228774
860160 283460
587245 94693
268472 935484
776333 979217
776585 597076
740825 850576
656448 740987
815945 15149
533326 368329
641119 641607
980314 49731
168414 681945
647168 488229
398387 358681
776727 622218
711309 14627
577577 427735
502982 960209
99516 791403
506517 537822
836032 866152
666963 34351
527261 158957
428270 975033
701736 497918
532559 885506
940099 5171
831433 402080
536955 536903
298602 756245
556893 716543
532354 521799
249151 661522
591487 935561
745318 337574
10000 915411
771396 885283
433057 483322
810914 765805
547033 387366
433563 516762
890227 895514
855528 179654
512028 521966
775668 314173
59713 985323
686608 447637
930497 836235
218716 646478
571452 656553
552373 303740
631292 488213
109521 472456
383772 149576
751694 870204
989849 741764
204043 417682
457986 805728
841321 705920
60019 173066
925154 577424
811417 478446
840652 995087
596890 457853
139770 293556
427583 944978
636540 452350
54503 318220
293363 169102
322950 865951
59501 890428
189162 662308
477960 980428
841042 105412
54810 164065
711435 452445
894839 497355
651903 944853
433019 467431
751426 885953
427692 15492
19861 725537
824783 960426
442318 94898
914990 910175
30515 915830
677387 377869
632250 293640
129917 895364
696090 969788
442570 681538
701249 184702
811158 29247
547382 75350
438040 313668
208677 676770
183524 731167
303526 591459
403475 766031
99737 975811
413170 383030
129366 572024
99242 502351
268552 60271
651514 433252
616964 413356
288596 54130
597151 94888
661266 14675
924781 213921
327753 920402
303575 751477
492005 253059
920518 721606
915115 269352
959769 104533
870551 477407
398234 104271
706613 526906
751348 890075
944971 815960
284087 437926
84336 427782
74976 139489
89548 890011
627105 576882
387943 119698
547698 691708
696561 681879
433696 313553
965103 269271
781077 109450
197964 357768
308069 850937
9882 388025
422734 646909
478484 890921
134624 849970
547044 402385
806059 74398
974776 746767
964711 637059
820268 602164
885114 243140
681255 244126
337932 636775
74787 70218
159098 954973
860088 74430
507165 940213
636861 960282
119471 174366
676743 945218
408268 836219
492394 289613
940296 154422
238819 368771
447431 845017
313298 338354
826176 373595
243343 367730
527117 537494
730745 20554
99493 726250
413572 716499
532594 89768
756389 248615
881741 59530
319085 984696
726036 756769
109443 651626
149273 765999
602505 711273
198864 507929
959570 716528
269204 840390
332952 562421
836087 725796
775225 168564
845303 24337
213259 552195
596929 482450
193731 775902
462421 810990
721508 233465
357785 288350
119069 865428
979823 278828
611998 581502
268577 383056
442744 920289
347917 597313
502314 925320
592459 397689
745844 716402
343542 447480
791409 557293
408256 820337
557268 155108
472098 621241
771256 169372
747199 512758
78935 472870
159590 95272
214446 188628
970339 651567
542653 472767
233696 552641
487409 626120
985112 268359
233499 577200
303264 960160
885280 169382
294062 800516
412729 323555
228359 50311
503392 706466
851020 596513
846492 382993
706862 397434
143985 811556
567985 761584
352929 74422
437429 567206
433141 626372
757122 811048
677059 228540
920212 970416
796095 74832
885991 442482
159036 139235
209169 856867
367692 661908
477849 761741
925631 179282
104411 243397
596806 348136
452750 601904
486893 218060
114279 886272
413547 985105
4251 641590
577289 149242
775589 44523
636700 651905
537442 204066
591816 899897
298955 915242
179231 398444
924745 452904
398006 298412
38812 701495
213992 930915
666181 935935
786023 611782
248887 234515
512799 293422
611875 204505
267866 989511
496933 233944
662151 388660
357305 810407
133993 885493
990397 805962
652427 517576
557415 949646
149287 139230
811573 795889
428176 174384
109151 875779
407941 870897
20416 492560
850976 896007
183892 353572
283614 94589
140035 437891
617098 990605
362998 890566
253646 586980
487971 602070
816716 651615
318145 552040
860210 731746
657247 895544
751383 417807
124102 413170
307948 204167
581260 322873
880622 979925
726104 906308
631888 910465
348390 820942
512909 841116
283590 970516
178728 845497
671525 448032
586876 467409
119057 621328
4984 263520
343018 915252
333817 55349
85183 403235
5625 377520
706783 70088
676473 642038
755644 436974
839974 343491
100016 825387
711216 776144
79666 607392
382639 552269
209526 168824
576418 511495
188976 945118
25131 507441
511936 402594
562056 288689
184323 572736
467613 436996
333372 910146
134104 387215
423069 79676
353561 293619
487505 392949
5780 945354
323396 503169
840087 596458
288090 213534
775630 910534
337991 293140
705749 830879
856064 193742
423695 632165
433101 423120
745034 149190
621585 591245
562472 482411
770653 871471
343298 119616
393319 337590
661569 417643
527289 488184
595889 487305
308425 482884
343534 457560
566899 263760
880389 382921
292945 9613
403523 248759
636429 845845
288980 179267
885157 378327
352794 527174
727115 935342
64754 642089
895581 970058
845935 139653
74821 860409
502803 149071
551402 960374
631721 253654
730948 268356
159532 980150
557275 836448
816181 153590
616876 353378
691336 89711
323362 173423
691318 239569
572497 104422
243445 691252
203373 880811
626978 49857
95136 427665
652411 65059
227917 473049
20050 616194
273925 383185
636790 244019
60200 402647
138716 427753
746447 357360
363611 9975
924983 243978
548369 556229
298448 283433
825809 462251
219186 586944
916284 696717
421976 34760
150161 174895
498059 770525
627069 423641
178620 139011
248403 701273
715785 512663
851434 123981
706063 437473
945664 423339
204915 308671
363629 839525
831194 552133
209298 850946
641147 994543
771259 597406
676156 811266
497497 323193
547173 616728
477484 597276
308476 831531
164130 701116
366921 153679
602083 537446
990146 656669
910186 337795
343404 153694
363328 293997
13949 960117
467722 860675
716781 114064
960507 542576
158285 29305
39676 219234
313188 178216
308179 338429
536978 920493
388688 785867
447685 770946
989567 278026
49462 89939
94939 292733
795687 547803
5230 612210
766132 836007
338533 422846
263928 169843
218275 34792
593267 89326
800862 780628
64476 239202
761159 781172
830437 531913
19800 64351
597246 836412
785916 955382
751316 800746
871047 34624
939898 940599
164728 154664
407440 881076
383617 523154
104341 45591
233051 572128
965090 810421
686596 671398
980557 178330
616714 94701
104475 408263
850738 214084
59987 408060
378113 661055
562295 854566
691608 606888
154482 407891
811197 159079
979259 746170
780615 317809
586809 552117
352559 557398
328082 9910
576990 383463
258374 249265
298391 40078
879623 209718
985270 328059
582075 611660
114894 855687
507246 99376
252977 950541
661660 163214
377882 333048
800802 830728
556703 407569
830633 840703
990241 293387
527471 20085
313151 527384
24657 627857
268798 979610
258777 527496
696117 114745
805683 208845
84022 690940
198691 119816
646188 911521
931126 79489
656811 571676
771446 343489
751527 696850
358570 303735
35369 830140
929920 860780
850384 263316
577340 114960
860709 692651
368626 388729
318352 387799
970437 820997
29412 925384
343017 900515
64484 323177
462151 253329
929924 283779
179504 24784
313445 282917
49395 994398
751008 403001
631513 169827
692041 497815
955949 253654
24988 49456
905357 318496
756235 800862
994682 313590
632286 119124
542166 905656
626560 274468
611372 612325
577799 657201
417443 835678
886066 413569
333530 343382
249380 851575
253533 134196
89875 89259
89564 467027
989030 855480
870841 233990
746059 820357
960313 672111
189399 651579
382752 795861
985475 870477
418391 362829
805801 35015
711914 750472
954914 865995
522633 204013
89562 183950
49867 248305
303300 398083
373074 945209
781287 129132
636719 412997
839946 368428
612530 432480
288033 721936
45013 492281
114018 846042
422188 407090
243943 602225
522454 899844
944800 825016
154189 477576
383183 979697
522848 791085
393470 169335
492117 109036
801134 134734
542710 457639
771649 925387
398101 856148
278598 855444
323735 184112
229073 438248
45331 646969
417912 328327
273645 408100
931113 497272
611980 940704
646047 377842
199760 970525
522619 547111
139037 249050
109477 716610
696311 562147
502894 343398
209129 949772
950130 368409
138903 118887
850362 790840
871434 591880
387967 203224
507381 840707
432275 716433
199707 109340
487403 710998
458304 108542
518306 497793
49956 880670
253916 920477
587536 755679
820560 25108
352419 701211
651985 278652
218724 756657
308444 845979
781147 771039
518182 318961
885776 40293
348537 80484
397832 74252
203766 90358
258323 163751
935268 536989
642159 576664
810803 403525
130099 741622
234039 776079
512945 343402
929702 652201
870765 969765
164141 208996
865604 924993
552154 786088
701391 811249
477596 363650
690869 935907
119952 547692
945484 417446
467414 128639
343346 353766
676372 740614
128998 841167
283685 950725
990015 252971
786170 527814
831569 427486
641895 706806
965244 254273
174382 467850
696465 920077
735546 268244
223400 512210
99209 328252
14663 546954
363693 965039
423244 885938
15368 492147
208963 188857
228657 845669
885548 582337
939975 224076
184264 54539
407459 960173
910202 283198
716205 19984
974992 84487
342991 581844
636912 502080
129226 611797
572073 816331
168613 786931
586204 777210
193971 969675
561779 138830
815855 343740
502437 457522
452848 944675
149363 871153
845724 178752
721638 129383
950314 14825
626724 645974
289175 477936
815726 622055
258683 322960
403352 920404
577017 413438
148699 328459
198712 742073
567120 382221
229026 427780
149607 199091
622047 93701
318654 880302
343249 726121
173424 796056
841140 348355
875491 448434
641865 517129
378029 382986
422489 114918
228228 915375
507392 626759
771281 666842
900233 831177
447749 541485
826013 930387
457967 124539
208267 10610
910468 333298
910863 94736
909861 134489
363371 218653
815949 422797
667348 631472
895352 885715
830379 173611
143450 417831
194050 636466
581794 269148
79725 173864
417640 656028
328404 348491
437338 811015
502009 214340
34423 148953
258385 377883
422871 805680
293562 736415
5065 507239
980818 347951
910495 935245
114074 910257
188028 442498
258769 413457
621936 373387
850127 528059
154957 417924
736660 894900
437090 243527
198796 890562
442726 745993
10113 502937
75402 183867
924957 841499
552584 527237
656414 347757
458200 541874
686511 159395
353715 453150
461492 562285
193640 985270
10196 681394
617833 820621
343116 740484
755878 756263
164171 989980
572362 353450
397754 442349
64204 352803
810886 811369
214425 238846
238353 309346
274152 855050
14765 846020
522806 800533
99393 597061
790753 283396
268329 756454
616941 9933
427317 656986
680949 527427
731752 845351
393547 427738
347853 790442
313275 647058
372765 303505
990171 84117
636588 29927
840907 213763
606718 313184
776673 447588
422871 954883
586768 174067
780754 149105
864924 502201
242947 84929
836667 930381
717434 88841
791348 890378
925474 278343
120584 94654
835313 546822
771462 353047
423350 870182
522736 750497
726906 79353
49509 84381
518269 911203
347754 14930
567149 746704
8873 721287
84260 49788
214031 333305
781019 373182
731110 323686
263909 671677
284007 427761
393310 685972
691868 278351
761460 657229
183682 945272
274188 278689
786238 711233
69882 303579
965326 915457
820609 149731
715734 432588
741476 84053
328114 174240
930597 457451
502377 587703
542406 387727
825975 705528
776347 333162
253674 403284
602035 650910
591279 109272
468208 611146
462123 193946
372599 805652
925662 756094
199295 427823
502608 860592
377971 89935
954635 323700
866544 164479
372490 582252
367976 576824
949883 234199
54360 721887
224623 686947
617340 487259
45164 453245
392758 836135
686212 860182
269433 726067
776282 412657
413284 377660
65079 681419
313055 894741
895313 915956
711615 522217
855684 219058
920087 622479
278987 796105
915840 193377
711155 677106
666466 198953
974683 323985
228409 661581
388459 248000
218845 835565
751247 931157
626615 741454
119134 885879
522043 577455
65203 139773
119455 646191
949855 517300
959936 208508
626908 403021
467845 606735
248736 358271
79868 423347
89616 278521
467880 223572
880727 184437
109510 432884
174179 884776
512161 358180
308209 427142
79704 756402
352252 318316
472651 258619
925103 875093
219090 164472
397693 925621
428500 970619
209415 810556
99737 970433
258771 337669
14502 522993
114878 512466
263565 830717
284108 497516
447525 228730
467304 970257
557016 472460
656629 846232
915140 800513
89305 477266
44916 353365
785302 636664
214000 711412
895732 750748
279003 840987
816030 432812
581865 448298
74452 815502
452321 786016
786521 298365
860407 950162
144451 596817
352796 780520
657069 258669
930217 358121
924573 219622
452440 701352
129439 94790
125826 939751
985389 129081
118634 577897
851049 776398
59142 69528
129146 84820
540911 731563
532460 363199
596796 209025
950303 591870
542394 787081
134745 283806
611649 701334
821021 894705
527582 606439
861293 34267
974713 278591
164232 885930
587314 945417
905572 845254
666002 969816
825796 974914
855856 273517
586858 557271
322982 622602
208859 651922
24788 646873
54980 353487
591537 959555
173661 168726
591573 353409
518061 890748
751383 677502
35440 164495
601777 343909
223802 840679
801108 84523
109278 268968
891031 622069
710814 890006
298495 78731
74558 159169
890479 447902
243731 39487
781011 781874
114478 268908
423132 681675
536701 318562
721424 506765
298636 960091
745979 442218
796883 681777
835494 571398
362675 486987
906375 975144
333371 841088
527382 228331
537113 178830
70112 796210
482801 775984
283490 289319
627219 934933
159120 672425
49776 169635
204444 94139
551678 298232
30888 168589
194146 561617
482614 457204
940706 198641
665970 975073
954899 940311
726080 99075
711361 229177
94213 120011
497560 308793
587343 786303
133806 587366
502434 656659
616623 198546
417730 915568
298417 93892
144321 25238
950388 781673
388146 44141
35055 821184
397368 447863
636683 851493
128878 313204
825450 472203
368595 303073
691538 262934
437748 194221
785710 930109
90032 527088
969914 497084
197946 238012
682369 84610
507779 780913
75292 741680
686567 771478
109785 387999
706459 731192
168883 705987
79524 367782
397944 159217
915453 930230
746417 740791
159294 35054
557359 730981
318529 492621
388269 288732
342628 636721
54018 14949
811113 292682
94714 497846
432110 836238
199511 781307
258813 760802
741513 323454
338829 646686
258478 616469
561887 333360
856044 572189
616929 153646
970219 174153
15204 741203
333161 382842
501836 600895
651813 557452
448039 572044
990005 148890
288454 557425
860690 516747
254035 428054
925339 586860
701770 934754
512951 462555
790806 458521
621764 825813
174080 547125
577169 905986
363182 835749
750856 318536
637430 74339
592130 408178
885478 363060
661478 59447
148360 388615
841342 831006
820595 114270
40091 308469
810385 303283
353961 125180
830610 666215
338855 974348
527333 297825
551894 89478
681804 632355
920196 756374
203640 885695
417601 746078
143631 845860
796335 144547
158668 243876
343366 109240
178563 94072
870654 318052
258703 517576
443555 994717
65409 616554
671438 965598
302871 885223
830382 60050
910320 696535
939924 646766
701578 627092
447770 874914
975047 667844
34280 980470
303852 133873
388485 990510
233451 273590
960218 173725
357850 139738
334000 795860
59305 268731
9778 69560
139314 757454
178798 746429
343238 930934
303530 258793
989443 412349
761072 253652
984850 437468
114934 900348
497543 537576
377713 183581
134222 606819
556231 691602
537912 447711
780731 517586
959777 279113
960531 930036
408695 711460
603061 159597
676578 920865
825822 253260
308538 864745
536930 308708
656513 964825
621800 850733
661571 298706
477861 586783
890900 612047
323560 915332
139482 338821
990543 851086
239217 527693
676706 701698
159761 363225
646548 537978
662294 522313
109263 556781
635637 468072
905990 546800
791096 183488
363053 447727
820921 413218
64582 159748
328301 367617
920365 955195
149107 54810
745980 826340
736734 39625
616374 915209
831339 477850
378579 219041
920710 716243
224210 318462
184891 631305
501845 865439
507442 895681
825396 453316
511936 631788
621848 84498
691252 562328
352357 84604
557414 84928
626240 994648
810948 257802
751009 910798
856124 746442
845663 483281
134517 448340
537740 761236
990308 652296
328238 969974
477749 492986
208462 587865
811188 397400
801686 34797
114798 601677
646611 408138
895957 616796
910610 432307
452751 970831
433553 935981
39705 741459
184420 218769
846166 765663
79345 790952
766031 398088
860621 800432
532911 432331
343064 801011
423096 921008
458398 890293
900102 781331
5367 486862
318609 785731
144529 964691
138631 179024
780549 880729
611986 691555
552313 811564
695962 891070
949996 662167
308459 462452
815044 199433
542513 59860
213917 995598
701065 487543
661287 382974
159176 656709
407624 930085
601517 716717
403374 513525
512117 44241
472882 397613
114944 954605
293549 786179
279221 10792
284140 123734
34863 298651
437295 556573
849772 741414
676204 393358
731311 716630
79138 124316
855657 790050
939379 830456
965828 398331
536718 860334
179394 776105
113985 756219
811374 113876
54770 472956
547134 626870
427706 477660
736234 910341
332544 432874
830737 715482
576927 199059
786352 562385
357708 780707
621946 313515
124183 507007
70145 815962
776249 79024
218451 557913
238987 824783
497313 721245
24985 730812
542088 443070
259401 770699
646700 845524
920511 59540
313120 64521
19808 780516
825335 846045
14289 294015
980380 403286
113784 542140
676936 478188
547215 895636
771012 602215
850982 253778
29196 387989
845489 408307
821418 338406
850297 413743
885652 994765
113744 780566
138597 582236
24963 263737
597047 467270
213765 139256
323894 407791
144131 716695
398161 412803
398614 343654
462317 785804
532420 656900
781223 239301
462396 24887
263731 124688
552671 462239
522298 497043
631968 204475
343363 268622
314316 736520
258712 631950
63949 512030
368632 278902
651434 984898
184231 24995
781245 9870
915140 955748
378574 950349
5566 646512
636854 55240
303896 402423
69944 233930
253365 303857
522122 299159
462502 473185
208736 294027
657081 497896
109620 263748
85484 597103
278874 20393
686102 14183
925328 885037
671514 273991
904860 552067
457649 756091
994894 541875
651726 815570
547267 198699
512160 870518
850842 537249
497143 939768
821487 373089
975039 547336
412642 437169
179731 890491
955121 69465
100057 900618
144440 353483
721036 910384
722173 701751
984622 756620
273977 282982
373025 173918
671870 796484
801351 601641
59674 463258
114245 811034
119551 905660
100814 4547
980390 641531
597554 342814
94495 34792
188984 309070
10190 984993
462974 113931
795268 482470
815868 800811
960572 40437
581999 244321
705319 994940
657306 213303
288200 840970
582039 806182
59176 119240
705463 258793
537462 268403
372905 433299
657136 776796
601641 233805
367800 163614
338565 826069
636164 229206
472358 995210
348340 935072
865888 408085
886009 885599
974728 692084
711145 39039
562191 24644
120042 507061
591915 691824
721967 302927
636960 800697
617368 288979
994972 244060
408498 298490
652105 810293
273013 229064
487508 751340
875433 343394
407597 29680
566930 795767
641511 303007
333851 622517
168979 104287
984150 9894
900472 671663
876447 491971
522792 208731
79316 850741
696200 282952
482064 254067
636470 602700
612256 512174
656812 203693
870448 855327
189110 795918
85070 178902
214257 745626
845398 790482
208653 771307
313778 756705
29744 631980
840863 308202
322889 935335
955306 904859
905352 452340
626451 233913
551821 174237
120009 378633
541952 542549
830761 785972
451609 651447
855909 547275
666486 980207
905142 322838
189373 498045
104400 800981
64173 954740
452834 791305
84634 268056
204186 731756
576205 502561
248691 766412
821485 433028
39792 955439
20745 905157
521839 357794
860592 318552
318799 761054
4848 59976
592348 134437
755746 89309
154120 815905
477262 925946
193362 666671
233334 532470
442087 208726
924927 582305
332961 930339
492593 880765
532952 974773
109593 865927
820709 79538
44324 438350
164561 861190
94898 343630
651912 910504
592661 895226
357583 552045
343832 785589
397917 318564
134436 432637
527485 692236
19992 413048
19696 319466
109314 189625
458189 701906
701520 905036
612336 213826
557825 621473
393717 238603
940051 89479
989871 462008
836014 477794
566697 751568
740767 393012
228748 279189
537676 327372
795955 606792
273814 368230
631875 123865
616330 571880
462953 606923
372595 840654
606584 571520
397576 422037
298484 243441
821568 387860
904946 149545
303550 985079
835661 984747
726155 19179
129849 413099
308504 552405
770509 755640
49843 681653
229406 298833
666891 646829
696404 587286
418113 507239
637404 656779
631670 532593
422846 925464
656785 656848
442843 512726
119430 417869
129524 388610
452943 158463
418504 641342
99190 64847
348314 895306
333463 492583
845641 133443
283382 308571
422714 19867
218870 74009
323613 25246
760915 452375
692164 507774
974661 984437
581697 825679
745899 677061
492974 845808
726629 189076
910640 915161
482365 398293
736947 153917
786989 443442
760861 114221
830608 423120
542214 721722
676830 577427
263679 785830
398571 278269
786195 119279
373106 905415
333915 362927
875859 516812
796845 592229
576287 219117
690934 711335
796291 542060
378067 945206
338321 333330
790933 502773
576607 50336
293961 60416
626796 770905
880765 144764
199013 711071
875749 437830
631103 616924
646515 775931
617490 84723
49158 775932
338113 556851
561604 706669
353460 785832
536790 865746
492489 522947
363074 856040
422837 929942
601388 5620
442729 69548
100119 940123
586974 203449
935148 358014
317738 546134
169299 75056
139640 675881
203509 567412
268659 552148
944912 537343
507240 248825
319538 910324
289159 637233
780887 920214
711865 671960
288719 263936
790910 960218
865746 964775
124643 935744
259485 880158
184007 576960
646893 786243
173678 591043
756404 129141
497540 766212
337656 657083
860604 611749
850847 104494
566738 472141
776032 617113
447105 318559
472887 383556
194470 582533
537723 805947
930094 398352
203607 602924
9554 99855
397845 577230
363145 934826
248291 174208
582238 741551
681264 209281
746713 735746
596653 905222
900415 228979
800425 213759
512405 810737
333642 875566
233729 169575
239639 974731
895188 567258
746084 457299
835673 686548
282930 706011
139259 631608
592448 159356
587128 721457
243898 796593
482422 277789
776433 324528
770830 35252
49750 537525
268430 84810
915075 751196
547325 94245
4529 606830
582352 939781
870967 193637
900462 775787
785670 870749
751176 617224
354354 831426
990502 622030
104359 313707
676823 110320
258437 392344
407615 34622
930675 687330
90120 304088
213769 621180
268420 363216
19837 900205
477572 522921
765462 900964
99514 264044
696115 348526
219025 258385
402417 786186
596697 333014
571633 259007
477836 25030
60261 591709
477575 313169
800813 626626
168961 149430
457830 527100
612178 645996
964883 168991
745796 945717
149821 815952
527057 287517
54653 606553
706845 840665
761256 149003
507999 622164
14612 621550
646267 263449
586426 473150
45137 20076
516957 398210
637713 154678
94561 14656
183656 959829
244029 930756
720714 492776
626552 114050
353272 99577
994962 358774
343399 417809
258938 178640
169088 537662
283922 576568
960236 154133
934883 577621
736433 840487
5022 512355
19564 159699
665951 467232
74810 919977
582422 795285
208636 915639
159042 866070
532263 970993
864704 906381
587426 407915
208477 735981
885480 522269
123687 945296
109449 70364
253814 801442
393321 472631
493114 39901
871032 109460
631887 935284
29309 85499
303229 59206
577050 363515
880601 995706
696788 223214
651646 726262
770489 129153
487666 19668
532234 44305
481825 298302
656659 303534
950468 945710
74778 99202
761403 547181
473691 526790
34748 402715
522697 338107
661278 920842
169119 632105
586849 676866
815964 123806
278691 537167
124595 691855
398232 657077
268078 969291
104150 273319
383289 571716
373788 422612
741584 189716
109624 985063
98964 741436
975057 571828
74829 443282
606308 850538
696599 483088
218468 477401
686477 821777
507278 959923
498411 905084
751267 576971
955778 313737
343445 412971
477416 631945
114626 945445
771655 258605
790342 467775
631876 502369
612040 671303
706371 621816
796565 979798
163730 94997
113450 368210
501776 303646
959479 621672
616524 248310
35144 666837
84303 811492
168846 546851
422796 98915
766219 412961
880181 45532
711743 387869
950259 472551
632215 159550
30152 69509
591908 870463
811195 751117
373190 755735
960550 288673
721047 353108
926418 437502
775554 766354
696426 995027
552103 29351
756218 168897
716756 776272
129188 616542
64707 258654
94600 478309
791510 851884
975361 617535
383224 920306
547168 347788
657146 328283
213922 716564
463072 134962
149147 383318
173581 278507
124698 10390
413257 159033
601950 198247
55379 692014
114645 73938
263878 632212
134122 304016
49165 741323
870258 49399
178837 705952
134865 318099
413118 696080
338164 288616
148970 517822
766300 49560
885647 185053
731626 542072
323392 636811
721353 576371
965907 183947
770749 533180
920371 283235
288912 805635
228186 781336
203985 188670
348087 30086
174192 343517
344048 283069
503063 845592
607365 193902
965177 645870
691475 322972
831773 661635
268662 253430
765872 603102
606941 358875
99606 368288
84462 577097
149637 567471
437480 920967
661538 491960
497970 531732
308647 577246
959611 581531
846142 587173
606540 198173
750790 94370
751690 507931
657069 188910
463071 79523
299011 58973
766184 228491
482286 904512
497597 780613
994722 900413
751064 407410
632029 188333
586732 736304
567161 547295
139805 209351
695492 19462
785399 547503
572221 775908
940622 711721
159981 711690
974468 905426
632117 343385
855592 158611
536909 159845
358600 839522
850442 716627
512709 855767
333006 353719
597018 382978
8968 228564
149547 253986
418469 353116
885932 680918
467911 149822
647328 891159
238977 125169
99484 14101
318833 592501
173949 756423
203957 677112
358827 214394
696548 945672
109097 979677
129415 168529
273427 785620
715688 313433
950256 830492
820880 119828
144523 904838
99638 582278
487867 373004
169291 656680
527956 661806
591743 596726
30058 671824
846231 487766
40229 367989
909994 527177
960338 771034
900488 731671
656930 447362
756612 372551
671537 134151
711559 771610
229051 756814
458159 711613
810961 661910
54716 596866
517103 273050
670944 408084
860715 527003
860735 582284
562208 756216
198160 989547
471999 387746
875505 557928
587161 268674
412850 816067
576870 183958
39123 19282
44836 144539
546848 771198
29591 836465
741183 363086
746393 124251
14587 258418
362989 581480
362388 661356
159135 975785
159743 821064
786587 48876
915618 183478
671491 617356
452516 906206
253697 607295
497340 462874
825846 502479
347702 218481
258525 467953
497382 621901
552605 512671
303564 79621
269209 920206
4894 422352
716716 995121
746302 616687
169523 368028
905176 333228
894914 94567
15270 915390
811451 124349
591637 706004
247827 19803
980325 786468
512594 224372
83962 775896
228559 930532
730400 452511
756629 566945
233633 383384
572058 228230
109473 482064
39618 443065
54611 881394
840725 741091
945871 890221
467682 49989
885670 492252
815474 164345
447472 193647
14871 641577
190142 506941
209591 75105
726625 149065
885389 741280
149038 995044
109322 845676
209879 617288
795622 930022
323577 662100
541778 203816
746063 319198
551867 601872
651190 323151
921128 438078
298346 886111
949373 736353
710942 706276
283681 273026
49933 443578
164492 472471
894984 247291
781103 899717
397701 243352
532044 19718
352862 298693
825469 159292
761619 99560
99557 850467
368208 189472
203567 178931
437540 736203
169741 995912
299082 397963
692309 790655
940588 835378
164644 184989
581683 451797
860884 755405
59683 835509
506996 64985
989369 929426
935575 94994
761477 402493
950617 214019
617075 74194
233644 243813
616604 695972
975170 249070
502210 990292
756269 387929
288455 253146
717226 412689
14675 591843
40201 591101
328641 487312
661680 293199
501836 199535
542005 691805
796133 407893
521715 353010
825633 94574
537238 115500
84222 478054
388000 681258
462848 930291
119138 293607
492549 751404
248487 4959
174027 806471
706325 771056
875898 587372
168924 4551
313653 189165
128906 248688
179046 467253
109571 671208
54584 279230
19187 785876
35181 507556
103639 905101
691697 348714
74313 940371
55176 636744
64662 531512
974894 214425
134459 756073
234271 94230
965146 597235
771241 731516
765678 850395
855708 806138
363020 576743
94698 521863
203581 39966
442380 930239
696875 810868
602477 313363
254345 169220
169887 865521
462228 159207
413337 154780
164779 869984
601776 657475
218609 855277
985948 313164
556850 183682
666246 164827
20975 328052
497642 506980
159488 219080
975348 45013
94195 930200
293866 347571
263897 940813
442246 507844
458224 532011
786728 428142
571784 771295
54484 130314
318079 820947
59548 676681
442358 298664
307928 896003
138997 229043
641604 985353
731499 984759
377881 496989
945447 919980
25298 283144
253236 856162
154628 392992
865807 767026
188674 602637
74495 10118
646958 502720
456895 796141
706328 701703
965011 438084
741203 627114
835440 343384
204324 891022
945075 293612
691912 955697
502682 428080
457514 954909
975586 148849
567440 413589
666785 263850
701193 726279
606399 318274
93979 99610
835836 681550
493313 681773
795775 368091
601196 472512
666768 457602
427479 607000
214705 382663
979613 492266
572334 293834
795616 935807
327772 148994
427206 701806
641530 542416
308056 19367
966142 348998
274101 746710
760516 627133
264019 462298
845484 59329
716625 940854
79000 193999
149368 487044
457720 771309
526991 565913
318066 721037
372944 751642
323229 143972
238957 925709
855465 900401
960388 299476
921070 502678
442360 174432
870611 333157
378831 587004
184759 901152
800898 582325
70064 402808
24708 746083
154142 632114
204048 591635
874475 328259
965362 845972
866058 776065
373017 328137
597492 228438
174448 697060
84388 726426
885159 193608
4920 189077
398009 328746
214248 870529
397894 796378
333189 318488
965135 318576
806635 104747
223665 248730
4369 372805
657185 890339
94459 712264
378604 198940
960610 706617
621901 741530
697034 298485
875773 318221
348254 671571
377981 392990
473126 771576
169185 173766
885593 646384
870226 174529
368107 869976
208072 403064
940586 158956
443157 586410
661489 278108
253784 219133
263954 342721
621970 104692
412911 79754
741369 159011
581104 108911
845783 397920
55192 368015
985240 701150
228908 218621
438216 856210
750341 193762
586671 392503
681640 69741
417753 606825
109265 363597
377794 173787
721454 980350
909603 44968
851548 69509
667036 133786
119176 383256
433017 572179
537864 228674
338385 517030
631497 591986
806555 621877
19602 418327
14214 79439
616557 656436
726817 776264
935336 338468
4324 870705
278817 447452
502939 477730
775196 810952
751832 183653
557440 920579
885897 498207
875273 701372
402845 776226
627439 950375
696952 626743
935541 900681
562003 50350
775640 542484
711469 800662
994528 527629
423314 457624
15409 378029
462856 780944
482990 372065
631633 209182
869835 736288
75216 840430
14882 402845
253393 19537
154466 686975
373660 691675
248677 94203
751626 751953
516663 776099
949898 19402
985407 850622
681205 25482
631819 725851
138447 572041
15257 706706
323989 766436
373039 472797
184002 552305
303662 417873
268046 865054
128962 940539
592051 99852
332682 426838
93661 5152
582024 254273
188950 94100
229083 890346
293550 636963
403011 642030
582398 955684
114780 874677
412870 313130
74477 760850
710910 154343
323209 521961
442763 591518
790890 74261
497186 736121
795362 49142
214006 423687
283158 731668
149193 332937
775765 750862
850564 577013
39639 4741
44590 497943
557383 497367
154031 298630
4874 761847
880901 80296
29163 238006
19913 55132
4855 597071
845193 249042
313711 776080
99453 905532
249520 940663
372669 980579
54385 447199
198836 164274
676513 472850
273345 4562
621678 482818
119847 283759
905696 243127
800753 44515
989609 885225
328035 328269
617433 174315
104515 353394
900003 736200
930905 915211
934528 253452
193902 721329
791404 328508
721612 746347
572136 188189
84491 100015
169023 438297
204546 960152
164215 646549
711713 333081
875796 716385
428116 144086
159123 621442
587922 139595
526972 677054
308152 537011
478217 89606
303194 745925
219127 736343
781015 343472
218633 119470
617112 208447
840635 233762
373603 741320
721645 850376
347504 403309
427409 353326
632026 880951
661490 198185
54772 363436
492848 577304
337439 213486
631532 671428
592734 920283
313802 368069
483037 895141
299435 925409
835175 65400
164033 173602
716418 204192
846058 219089
407998 944830
622107 926021
871596 383264
353082 856387
686532 969956
596953 746465
522009 950519
154481 252910
367967 452750
791423 408522
561641 636361
522695 612078
25007 253420
900023 875607
900320 284039
173661 731586
213754 536757
244112 184373
129174 964848
571713 74956
522586 89640
820987 830698
631922 243608
840750 815209
84733 497372
143895 54701
925623 133784
965105 806150
780647 979784
929893 790746
174247 502622
482676 646971
924754 572500
915916 641731
691467 432531
765415 775816
114099 288387
443332 945513
781202 353537
646624 175073
716784 422560
756051 149323
179578 79683
159102 780860
541939 736329
120203 791413
666208 746048
477715 696606
851312 766898
662109 367969
9192 969834
800699 258701
990065 243393
502379 533015
49676 94289
944943 766482
487778 586585
890786 507397
158967 701195
979502 561653
254040 915547
149570 492877
314121 461932
228138 397884
621983 248889
875169 113755
428067 825836
218999 950300
492457 511786
24849 94050
636904 293878
59944 9893
278044 527586
830452 273214
596774 248637
30489 989994
691834 845354
427513 542514
159410 806154
795598 940410
701100 955440
985188 959940
149570 278653
626688 651389
448318 308330
49692 253814
691089 79559
4986 845618
716881 641153
219528 233604
328588 622525
925587 432454
845846 641383
572405 427977
198537 338265
716449 602016
413468 671593
427760 666692
950182 74893
940414 591735
492167 343247
876458 945231
616379 890958
238789 144363
646982 541789
975244 179528
19433 124679
597268 537414
393230 183914
417194 680846
651556 263565
79922 508106
264083 358147
353593 825510
751505 14543
492801 746281
114194 278982
726366 786124
701060 123441
4673 980702
343447 945080
950666 462306
243146 437565
114790 139277
228883 378026
820341 531978
662424 69626
104453 547250
453387 28482
239271 298578
984919 696628
134165 686464
119439 243953
53927 10286
124362 567036
368275 666948
233639 915680
472390 318788
835453 835707
537505 810673
874782 865937
955009 995997
104182 616923
592211 686630
323606 284045
622266 626854
964617 54858
482725 413072
492938 234426
259154 368288
352964 383106
447509 989385
333926 537236
268726 825994
761710 5279
995093 845253
970551 671484
969977 35702
686031 496702
695992 466933
512213 656726
725918 707199
945099 367930
233235 114579
368455 139457
741213 79421
487199 343084
248484 736907
726647 885682
343019 687188
19270 944806
566698 268346
69673 243503
835337 791113
388418 731060
949626 348143
10731 39764
373241 601765
970327 388242
671574 711339
969949 263924
203701 113953
830724 79606
552964 24867
741394 517453
800840 736207
173731 825891
478103 54975
836028 288738
124430 875823
721104 257968
512745 890676
432744 164464
980532 262886
48920 323666
144235 119787
681293 154309
213711 820082
447482 144319
786237 39892
333418 780973
29776 293568
681234 939970
845446 368182
477243 740868
940764 890695
50276 646786
287942 65482
826648 666573
522231 826019
517639 914928
129293 949985
238510 64810
726815 413043
94472 975093
915947 109759
825663 820421
850978 392703
497612 333486
100087 253839
85025 701107
303682 253057
820708 427421
612099 503085
15108 418035
229432 712111
566908 44633
29882 19736
393231 75430
183832 292814
805853 950378
378009 34547
652079 203956
776245 955369
656014 467370
104058 482802
572151 397331
417995 860560
617023 621639
503454 830746
333115 527257
169652 726288
154454 700897
841395 751736
512995 99031
268627 557402
810964 517582
716897 54866
870696 24901
437520 687053
701616 870362
840824 372700
130194 880294
119730 114496
144556 864820
820404 542191
448426 626601
74695 54615
562960 322821
641198 10698
159188 646587
453046 910531
547878 816005
462656 526806
392742 517944
109631 45270
537034 80339
223635 821057
676680 10095
517532 831113
731325 368394
596631 238327
607300 596917
796569 298320
930508 407253
403297 302956
935530 218906
343857 303307
417951 785898
214243 258792
84382 572676
333872 358398
354003 955117
15193 179433
592165 55119
174034 318745
776915 144518
353656 949945
974965 78535
263546 571835
223152 661350
830828 437863
43693 34056
84563 154066
79528 204233
894393 576771
472116 552996
412602 581636
382326 119917
960178 980667
651152 427971
631688 920162
915520 104436
239130 665955
80174 213727
153928 80630
771347 702334
43954 841373
219099 786305
720875 845291
273234 447448
199210 746349
930499 929804
557092 427226
143905 452556
880945 199591
914971 279061
805861 229023
119352 950360
885220 448236
398231 552542
154470 358214
19839 990158
865966 533408
139658 497256
193731 746393
44512 467591
616280 522748
756329 318466
39804 671627
612779 800983
70066 14566
597032 666270
671497 920806
885268 423223
243970 950753
278594 576581
298550 24024
293584 198927
153893 890266
15458 313405
69870 50094
174805 178699
870774 612122
328627 955490
661691 467309
914940 721368
323827 770445
651408 497886
696899 104785
537012 342764
63756 940819
880566 448064
5143 701734
173747 363229
666597 562077
408426 542577
75583 462849
482425 282758
397664 801358
84564 516997
840287 303858
760875 970023
238754 114628
363610 442384
582055 249202
283631 258645
373740 622441
597238 259337
890815 467778
691320 621351
5162 164265
582764 486548
920777 403015
526630 278605
367855 746106
990194 328122
432833 173651
776300 367759
30350 467642
278672 930308
124455 826302
796286 502634
507754 194373
826129 104749
691055 726168
303194 815461
492473 328660
338520 148723
283401 686536
54216 776001
771145 319029
517209 4743
89352 646941
790420 642254
423262 661517
706655 39188
820467 218684
706271 194028
855500 915258
711893 448112
959455 790380
856277 796264
736027 765545
249302 288338
587531 636864
228598 258430
367675 84871
746077 44719
35116 174450
279266 298576
149544 9635
109368 442454
557452 5288
35182 373263
502561 74871
298339 84283
696964 715723
632595 114557
312677 433093
985000 497884
478017 64470
985066 99174
905437 706560
586863 870367
691997 577256
328684 194514
377491 672196
448316 368125
477144 527107
702065 985646
612752 830778
736462 199240
233148 945475
602009 944998
64236 864962
711897 532710
45307 94549
850465 138906
481942 433638
626777 44242
566475 73836
786440 184520
701534 676654
641451 691672
994981 213385
767053 513561
771156 293035
308299 910263
970004 582675
587162 178598
194013 860493
339124 985109
387971 691661
671760 955099
473097 730939
646280 293873
970716 84891
955426 646738
581775 551552
562225 407669
850480 641905
781855 473538
690591 771177
845943 825332
34839 825958
740354 532326
905394 826084
113956 761304
596775 447756
815560 841286
129552 308310
264043 547381
69763 268577
258611 219121
874806 104973
865496 492689
836105 587321
109145 776118
49157 482847
418080 731608
337753 507156
4819 338098
895739 945464
776091 408382
79050 45183
328427 253981
945096 885228
407927 521939
293035 154239
35182 537762
522266 328148
94458 720855
577515 676096
39047 422581
747685 428573
985056 587428
159072 80188
905450 666780
507339 641646
945635 274236
452358 397957
423077 483314
726027 24321
622126 676841
333087 766037
173807 880028
179072 507215
442862 318769
885390 293587
571962 756033
417670 930287
985571 243379
556721 35302
283896 292882
99599 875651
214052 358202
781050 721940
382793 855682
621858 597310
527486 69626
805808 517765
901012 29825
979935 343061
443361 816307
69882 438237
289565 940154
581795 691669
596332 104546
153987 377928
333935 855309
298291 49671
273781 601983
318592 363164
298306 746449
363491 154304
805688 54527
821769 422964
94988 939691
955145 357942
184082 372286
830966 980041
620932 438160
706435 481866
691741 636679
910779 422883
9903 750831
462294 84574
243408 158963
697182 906088
398460 770994
969921 860826
368107 59608
606874 815489
741320 821202
601893 875179
238955 681538
203719 706892
771681 945540
114502 641376
970039 273076
45166 781121
333546 15111
751279 880652
611881 239239
35297 532163
9648 696665
801017 378130
731510 866184
413321 865951
557046 771161
214358 890779
169351 950708
725673 845368
54139 930075
636732 995036
293117 547816
262979 497311
781074 313532
900371 144281
880226 840689
840815 403323
949741 955247
283569 352672
546879 58787
777000 716242
4645 885961
930555 49862
378256 537253
348084 546833
950351 785907
562622 338123
532205 939769
25034 462487
253699 163836
855690 432843
303710 557249
213694 244074
487703 612564
532118 616675
780855 482539
39746 104442
99138 662262
626824 835840
737068 44309
850243 432069
760945 95028
204577 985167
667343 771100
248365 278228
522479 690559
363080 563303
193972 114404
687006 547215
179164 303908
44944 432620
468264 219061
531049 298216
95239 483276
790449 462640
473255 303742
621973 636737
508555 347738
905432 780727
49698 343497
567676 626559
502609 821048
258827 119261
925670 676386
597286 681781
213922 144385
223870 825905
920799 751482
551802 432341
30583 378333
686418 826269
687110 985331
890475 890555
901502 636825
736005 566160
54310 955583
148981 39779
955334 194409
910155 159246
303020 34970
129305 925669
84265 149609
323611 969961
437573 402661
169597 134685
801712 417544
850558 512684
781219 995274
347623 59644
959914 45685
746758 746524
483217 596356
29499 263823
453205 179431
108821 806228
766081 820332
417720 218443
432567 821163
94669 775974
393573 397768
696402 518043
655890 691671
84842 512195
621289 19887
875703 994274
472550 204586
492615 502607
766440 487235
825799 899966
40041 348271
188894 487126
786379 552307
896249 258779
378119 417597
894682 820317
731510 850775
910178 437719
199479 622567
865078 363260
646648 934856
890535 796523
447827 273046
632016 512009
363148 358329
492996 24863
208834 114132
307734 254018
198889 30523
467736 377709
313856 960051
139333 766213
552654 701286
771543 109954
521257 592377
905128 183723
487758 298080
263365 522311
387607 840497
860821 133804
661391 676616
477215 900071
372555 39947
662432 915456
905040 65201
990300 720953
164323 607382
725862 368212
765746 611723
243311 223356
139125 691476
860762 651798
656567 238842
766395 119661
512659 940850
875358 313280
542577 606845
333055 631406
900291 951022
611984 731825
840647 288202
596686 492308
920107 233097
109031 422528
263518 925648
745914 229052
994119 835786
20147 188421
298522 979557
816000 169186
39797 647156
482049 970307
994804 552550
85058 562260
402658 736496
686183 109474
532011 218555
915516 905003
342856 358174
979961 382632
716813 64490
94358 880332
990262 900562
711769 432380
74780 204040
721683 691228
139863 443180
616730 736512
89057 367742
941396 393079
283883 452757
432561 830924
541565 143750
104858 910414
636550 338583
39910 905240
796418 865993
816174 149238
238757 592548
512961 472213
552459 203998
771183 954400
333124 228190
169454 641274
622181 632357
328178 949923
287905 114115
964522 178839
348955 228768
333754 84689
517575 512526
104570 448270
60315 532015
79091 418146
865583 611797
483284 108950
383049 954948
696964 661196
711213 497690
989945 129702
5330 432680
657464 880779
49718 576759
830984 149624
601759 935157
820881 213377
198654 577160
179895 55302
582285 721463
915693 676268
537446 722569
552310 383014
547459 248600
681951 199117
606726 760477
716589 781082
463061 791067
572336 89278
617152 875239
647782 587124
213899 562429
432324 14345
622053 606985
394000 920543
577051 974721
308855 413058
263467 711068
870582 925214
945177 129332
333760 154038
50121 353726
512682 298721
238106 392618
886309 820768
258597 154041
59904 611697
492804 418004
686684 512642
184006 5203
995498 761556
467230 855729
29915 965306
572055 253550
109362 680635
234116 810907
989369 198441
661231 108985
472500 30440
114064 54490
596531 149462
49473 960530
537365 437839
253657 309183
148722 348608
442937 969912
681522 736352
790347 129350
292975 706731
284614 119173
224390 343961
657565 54640
582849 745691
472708 134773
74920 562527
164665 801774
15112 825378
671538 607446
900904 45052
984199 865696
894961 825957
19950 337845
522278 895041
497566 65061
790906 69444
537251 84776
511676 667128
158774 720666
283448 889899
955101 666670
408283 462311
357370 920726
473149 110048
44709 159066
363205 815469
293573 885352
805980 487823
720996 920530
851189 189500
851108 93566
154185 636760
257763 303712
517392 617057
472379 850772
133664 731474
527408 483041
756956 289062
263547 542107
74554 592366
417098 59797
850279 582406
527470 45097
870257 418056
104096 319006
751591 701720
935736 437793
437830 263059
815852 189643
880118 557195
571965 482791
362854 925502
114484 373752
691877 760673
149432 223807
333314 836076
566969 183204
582403 278813
258805 716547
586570 801220
314181 158982
780950 785839
591745 413268
691939 29583
731240 129197
686186 949660
214318 179207
795520 393117
940278 203939
19261 234257
870303 905413
641784 477284
512090 985577
322579 805720
29684 547882
567175 582650
636619 124187
572799 651991
447927 636327
576639 74600
413534 801512
368159 238303
278351 373215
606027 935428
875900 302721
766873 671390
984929 880443
248211 855630
188563 398194
448190 606030
64276 925481
223543 20638
248273 602135
34422 810877
865447 980192
970869 392889
169180 278557
179050 234161
94461 547596
791278 388388
163738 373697
452579 129305
990301 880352
795464 398655
537267 412597
462960 522124
755992 900018
800705 561756
159705 925041
726390 427926
198943 686872
497812 392741
681235 417963
124956 164176
383417 466863
347483 119755
293649 398075
442771 144296
412694 811760
403343 965054
551851 139400
403584 173880
641505 387556
213931 885664
761389 800830
179316 621918
119610 204454
641038 402681
681310 448027
965223 304578
119477 720550
273981 268366
865648 726349
776156 189118
467458 587491
274083 372928
879926 851212
934509 89813
899665 885483
412905 950744
846386 432756
657150 19905
745995 542550
163666 895443
626923 621501
512961 253743
178740 636559
427646 129426
407785 487121
83612 463025
656410 109870
746320 646466
557117 617123
309053 24841
591799 990241
19981 472658
154818 313506
851593 531772
552391 860456
194440 358300
934461 487030
552824 44807
24964 203968
332681 377655
348274 696590
741191 935071
527274 199340
641743 267964
735554 512758
955499 238250
522396 229164
596585 935054
15401 283138
562641 885335
631690 393201
447467 213852
413034 587682
173607 602466
259487 268526
616733 59441
816276 263783
392772 109907
611140 676478
9284 979884
70017 691320
154222 860503
517406 542440
716401 232804
547395 886095
188841 880447
124022 98832
746093 935294
776455 845014
750841 636472
815882 875970
890091 806595
900482 99377
105284 925208
193984 995387
984709 83931
60398 914373
765597 437526
228766 54234
144254 686232
174045 657136
288988 925135
472880 347827
368715 935554
950482 795929
975008 319227
825723 830595
790377 293213
899595 626822
816093 830130
666878 268998
258692 532295
472858 701579
950808 64530
706768 9782
124455 730792
567072 911380
124356 238706
397611 4563
173946 920413
93969 408305
916039 965221
890646 551347
919613 253601
40071 542423
795825 900613
323094 118789
642044 73944
148791 695844
561856 820738
761377 661535
303680 443131
209369 561858
547322 492736
806555 24127
587427 228756
627154 786156
517227 959795
442527 258625
586445 358426
681825 920515
776280 755716
258504 343429
298479 944649
512866 417237
154957 731807
224708 34620
482200 935108
283940 30714
5495 343107
825948 129825
522041 984598
741595 35057
223511 975579
392718 223774
59804 25263
551796 228814
502815 392831
373626 587288
189229 930990
601998 855686
9733 478062
259001 652463
150014 885889
536941 855241
616847 775993
786139 811281
915523 224424
154466 283931
10072 60123
960031 134086
442541 118962
985204 223486
294448 939985
293409 861584
49771 243869
806750 740999
54800 228611
622200 233152
482019 900001
712268 298393
910305 621507
497131 556547
830964 442455
273361 696770
552312 502487
303028 522763
676329 716401
5307 666981
576137 692095
666403 428129
34711 910355
83853 925272
120000 427978
302981 427953
288717 825869
960422 457780
94178 602354
810993 208834
527800 457558
546915 506849
417455 781271
462713 283523
945217 164810
378396 368364
438685 701380
45068 358469
472425 437450
264140 193811
587546 427216
886162 572807
54255 904889
552695 845711
536925 851223
646702 975722
687054 786343
935300 890587
656411 606894
566588 875715
576729 324016
602100 318196
398016 40000
691494 875503
418388 920123
860119 891051
592283 443458
154965 427232
850418 258919
900569 766517
333706 612678
278626 273535
204630 55301
523060 721042
676334 174096
119693 99185
896301 338390
567128 19898
682039 482776
657344 358161
433019 407781
765912 239035
885704 880209
119496 552280
357579 885376
49412 756539
283413 919888
885566 318514
44551 636849
646857 562370
745909 830939
661851 880508
115086 119305
492269 139668
831198 637201
378691 506989
880823 263803
651904 372185
741607 64967
447211 123552
765624 129920
288685 322800
940209 517216
905216 885029
9638 637425
741087 960005
64678 99495
929373 671489
959452 879889
740914 726336
800997 671399
5531 477468
527501 657257
292968 263465
313610 103838
79383 382528
313742 631929
278401 964259
890021 352720
681348 164173
527664 726483
155302 159348
726461 646908
642268 213567
134318 372712
478077 940146
348552 637320
686268 114829
453261 248403
676601 154380
293487 457030
671296 159307
751649 59903
706512 268621
930848 975504
711358 397775
399005 382993
54645 343205
60320 258694
736789 576396
716626 989797
119348 875265
581753 378329
49509 462744
631502 925584
25394 317661
80116 114355
656717 44619
318399 323786
34292 323510
358428 716794
108876 930139
104131 775977
54525 641466
94551 149295
193966 751183
158713 432873
363756 472500
726401 194002
860325 522416
597287 612039
248924 821085
616887 432762
930448 69744
626380 84494
393139 880157
577694 80137
278249 850501
786285 303985
333408 547078
930852 815397
682071 267788
647051 19837
94570 69969
134451 253892
403321 466866
944992 373713
840677 631844
462297 179449
437825 720944
427085 742060
74722 457574
348065 143680
373012 362557
418501 243514
393352 417582
821006 83658
920254 493421
388140 412820
15129 805856
233612 676181
527366 74581
74847 109434
357901 870828
641694 701799
556922 523552
959872 168703
432455 990066
487519 4955
64757 602201
731805 995263
800593 492769
129774 120145
687289 840729
786162 83950
204006 800915
532633 860949
148728 780831
84735 119064
54517 701181
571777 865789
845177 920738
900688 512330
751186 686953
954952 60187
283559 163360
224672 760896
786197 895397
24672 164191
338179 119219
287774 4945
94156 25363
815729 194250
900543 761166
845799 298558
492439 582494
561975 870239
10680 975344
378105 204390
960410 546510
859888 805381
258306 353076
208983 238852
552463 726079
194293 44166
343375 552617
348051 815320
497868 497635
706596 60261
353129 25085
627635 153739
253845 592525
810846 960659
681571 189400
929875 656475
173931 99518
40039 975184
243865 423439
462631 582041
392500 815293
258056 397875
641174 218670
448047 681674
770844 581856
995048 855693
467645 616964
442979 5307
637473 662069
44750 577593
248434 159255
730789 760153
517424 552172
850771 979750
318527 636651
178599 587021
717188 845544
955146 348048
859946 845533
423137 218773
666008 223808
870826 772239
268743 860076
835835 766161
546513 100434
318472 357829
143862 855946
208225 40017
54340 333489
786210 745520
149576 44531
701954 154900
108897 199259
94647 905125
796149 512462
427482 327822
408661 79208
104794 900012
138985 502721
253418 930008
174240 9977
949849 616456
34831 183986
183677 263025
29975 592028
806578 422078
860666 602897
203695 363452
571922 248774
452672 233819
293115 970024
348340 487598
367474 810963
682271 517420
930355 194622
457657 487997
756214 557815
820040 556751
218677 492553
856786 662030
14229 925513
740951 974919
875052 139226
274015 944367
607369 144891
577363 586855
800883 159863
467291 711339
487292 526379
507390 890539
278345 363433
810579 248068
891062 486590
213521 124697
373863 780829
468232 427918
153957 189003
652236 128878
845278 830729
283455 209151
582019 731381
482449 507038
780647 533114
328239 820913
512004 233945
825659 781008
860885 930221
929916 770852
751248 974959
488325 651846
382533 815641
561211 477459
159418 746455
622472 686914
19267 731618
134311 75409
398196 716573
701797 402873
243659 377994
234293 317964
79236 880861
387535 711466
482511 367738
795827 800899
860814 985056
497226 607201
5103 527704
75127 934926
357620 209017
223921 796148
243248 910510
332360 616034
895668 149321
666416 512720
860739 363034
403653 100051
268736 188275
831421 970338
297873 935348
437645 304030
184200 144418
288571 950208
432584 790562
124335 617259
283754 423149
805819 501786
149262 99278
447193 850194
586920 353059
159519 174558
656659 298074
810545 387672
467958 567583
363114 54905
194064 15238
387503 546732
900501 209173
607471 99696
954984 447738
159347 158653
616850 567926
64351 831119
397877 223824
716624 298569
556840 178271
332888 74777
113842 79546
288195 223385
149596 706523
517833 895150
800416 358530
985603 403324
213692 114078
980961 730979
915783 39891
979563 422309
626373 318395
397975 194322
477827 995352
835373 422186
631963 438041
875000 457663
129468 74131
129233 501913
398220 642101
299257 318384
124761 706081
328867 582432
507487 606480
418539 298302
632058 771192
138580 606584
597101 896483
168679 790445
511672 74535
224201 880740
199471 397542
398104 895476
393274 567158
900124 348093
771672 417201
581866 308194
567177 277982
889429 283671
89331 980288
845739 69588
696597 939593
79634 592059
209483 45208
661573 845693
89461 412603
512535 393144
218640 845954
830763 159274
736798 297824
168494 741317
562143 910662
497794 432553
936077 731120
398741 885900
611086 249265
751436 397660
437434 601033
666812 382943
791395 899916
581942 696230
258969 193752
726512 88621
576801 964538
179700 736020
945421 915253
925535 189066
149564 651540
298883 596819
273837 840842
104685 930716
627173 536891
856033 716101
974694 383031
964827 442763
184094 35367
387961 581666
696381 393143
223721 492801
826211 591766
541665 189437
825962 387999
662451 104619
820593 228884
173962 821011
64351 845668
606765 402651
835827 452466
915714 283138
676310 44568
800897 527529
105093 627222
661972 511930
497798 522490
264045 811430
209155 567117
110071 800810
204417 258560
845472 741810
710927 626193
263167 607564
259656 463029
890591 870586
35129 846086
562715 84193
995021 139103
442844 303748
930199 120134
20289 238777
517504 622370
706515 671883
944472 408191
616639 467677
174392 526870
34897 273927
228629 566386
934821 49231
427819 746638
362975 646804
691816 298543
716095 140135
129299 806404
836190 940262
333838 119197
10142 298880
343830 756577
49709 874886
50192 198869
960656 990189
870743 134143
766209 771174
487812 671430
537831 388110
581997 756056
134424 473183
751803 477482
85291 652088
691498 512390
59712 771534
388154 139368
800844 368943
637323 910094
960374 562250
632468 38909
706370 93964
940122 770632
472267 487873
612326 795934
581198 910319
930134 712149
791815 895530
258919 229249
726778 507603
462736 566476
328421 781608
662194 895313
681754 572149
625617 875473
607565 790933
338534 139379
745821 994698
84414 602295
104436 19974
298106 527552
283738 582723
60023 124293
950208 586925
78946 995453
29158 881044
811212 214217
358986 671847
746409 537236
811165 333840
929459 666200
472805 263517
372921 412878
468034 155213
651328 671750
631946 317963
422090 522114
986080 532624
647140 144100
800447 945036
482230 566796
287840 298616
989836 422566
695869 69468
751889 721692
606285 268145
407683 283557
820635 366921
323529 148307
268985 656077
119945 59639
189684 198484
656311 945205
328667 408330
428645 751216
124649 39769
432831 477630
432118 750268
35252 492306
447663 859953
114159 517078
184405 890490
323204 879949
297840 631816
40121 353036
273647 189161
512066 756409
955725 79094
104174 49691
348167 980113
875282 64844
362987 258230
791413 49310
139125 548253
626436 930245
278654 601785
452834 507674
10483 572629
79528 930686
198820 348097
651804 979625
621891 139406
393087 994674
19186 80001
666723 607615
249448 721649
472842 293413
293802 856015
721402 750440
980608 94089
800914 184335
800256 323867
64384 577315
114631 447977
457883 218941
54999 726247
4137 587138
258939 636229
308504 244829
457635 910215
959598 761526
502459 536950
74156 622219
397647 84377
507607 184221
392734 84364
10494 354022
551761 989817
443145 148756
368690 621910
667194 40197
139399 552123
905553 756147
30186 820805
712129 95078
313993 716712
651453 964937
716958 706391
363052 417408
651997 269471
69839 766068
69147 348464
636942 964981
761463 39382
129044 607170
969776 591811
995685 318699
447474 885643
426573 710940
84592 885586
686947 690895
607266 202744
806080 328415
905167 368598
239103 447646
59612 711952
612281 552937
4417 259434
577526 556610
835465 960739
776351 383310
791476 253292
656145 532306
110060 397984
368548 257924
791948 511994
273431 904916
965315 149486
995512 890611
975403 552680
641669 920276
890885 209067
925341 457830
989455 214288
412325 592415
214232 935264
626362 268686
791167 169015
671471 359108
611759 54887
890841 462333
452582 577356
811031 447408
278175 920875
905803 348524
651703 691833
387682 797084
199312 702089
881130 820688
745609 174330
712112 313395
646734 930999
557000 482830
64315 750345
562149 746491
144200 423605
954989 269035
148520 532014
567127 631988
393306 691198
9807 10226
333319 756045
925085 491713
571955 452919
810815 458123
40085 363087
995128 249001
84344 731154
945585 194268
497258 551796
626979 99264
979854 775787
104450 214146
806098 915662
766002 477653
367889 368011
288780 123798
512388 661370
293898 24395
731690 696707
616426 726255
552476 233962
438559 338547
119243 701852
492554 711401
925890 298694
323339 691579
940812 800995
865359 939861
835634 825861
149210 153816
870628 642257
800289 801555
99553 29604
845655 273847
228708 352998
960662 64502
850358 746204
652116 975245
840778 25008
114339 124219
522443 318525
955876 925222
685979 70154
646652 59813
343141 382933
5650 383739
159302 577148
258382 148489
592568 25323
567084 144386
627815 64488
403350 233558
781369 975223
552811 546769
651761 194054
413134 701376
368159 821499
342814 190219
94440 323278
845598 780504
213583 841041
964532 114026
25329 74271
438003 60425
179734 591755
174390 562677
875860 109371
378227 626928
372796 194435
666376 442174
164048 298506
254068 711453
304032 621809
796031 223458
288530 357508
303055 676388
462532 49733
442776 905342
562348 413019
323171 259028
218975 49877
577713 327711
736945 547139
298455 4472
811286 855826
612129 517399
383359 756203
447850 233565
273774 725810
721443 503138
919871 99917
567047 591498
602447 865591
969991 487656
870386 676726
944974 318257
905013 278310
925233 591524
765845 970716
751610 432777
209304 940937
547517 586980
104260 188803
402674 29636
736441 422608
905260 312490
552365 865925
179641 541661
730931 770671
457111 746329
795582 676961
189268 581964
502335 606819
273989 931050
776328 10195
592043 65013
641225 661816
910415 825786
691490 472788
110309 39728
254155 144252
637202 547680
765741 458104
676478 457604
830504 244248
204351 233784
875779 905668
955045 9674
104459 726036
885749 736111
805454 681583
288622 954636
229543 303118
109442 5296
149087 711775
387866 183470
920748 468304
965068 880243
438293 397964
199261 675910
59989 552325
890602 432898
677146 961075
835420 153625
691422 905856
20095 925356
846135 562223
835339 298380
721129 79284
9746 736848
84603 247744
865123 716576
173749 875438
69588 900523
437700 826063
74523 612613
124804 267522
39586 174431
546997 876003
890363 343919
865336 139278
348266 641337
303358 283021
129154 776186
278428 293381
920481 796172
920346 851258
35073 129634
731497 607251
651695 894771
920315 760982
407848 378214
820077 173985
383480 288753
392916 895986
229636 522724
457113 173933
10372 267902
855654 322773
637055 990212
159093 561823
662263 970391
507196 69401
248353 636444
904958 985657
268855 417674
174751 836162
418023 965017
756266 990460
886305 65180
686917 214153
213636 826201
283484 806035
402885 761408
646827 328707
114401 795739
934914 851068
920384 876034
552751 150466
139231 636407
89115 507459
661259 134795
348647 368678
83983 318635
333341 348029
433076 377216
138919 467920
278394 342709
204086 238347
497561 44604
362798 408359
438114 661406
890016 119378
169020 526973
486763 477783
328237 984652
920507 666914
697230 949194
487804 9426
94519 218528
646125 984991
30107 507574
532233 85104
761319 621431
403303 841156
273361 174148
994648 353142
268608 9901
632065 761456
482756 910160
910152 377406
353318 362953
751443 924342
840595 398206
716733 974785
25220 99782
537906 542152
770788 527406
826071 193676
138709 348494
711146 273118
755909 854891
29327 815067
746101 129101
925417 423185
308719 751205
855269 319256
572366 980484
845684 755915
348216 975062
239020 153893
889869 964662
481908 582975
741592 562210
267996 283351
104523 756235
239239 437661
313856 10295
4862 452034
935084 4386
949685 84387
463062 870869
287847 40617
128698 383223
193620 801158
582714 875355
662038 422838
856181 129275
572491 54129
433108 576522
641612 318639
866287 591189
661477 930654
184260 59832
671654 740839
109986 65164
129021 770452
841411 821427
915542 790581
169448 348654
302927 770549
541391 422363
497396 223399
497572 865910
771283 561864
159895 472878
954870 766931
676612 79786
363100 726476
636365 49818
845711 611835
626906 503006
681566 387981
989370 428069
263836 915470
601452 672213
363179 143471
307974 103864
14513 437917
189339 169176
134886 134642
626448 581452
745759 294081
537128 960077
139714 19819
522713 701721
403053 163959
696244 35394
149579 900960
373526 875984
711570 174579
716296 920363
586918 333135
497531 925501
54218 288341
811635 730250
477178 84265
765869 706077
870731 45877
293590 73721
935600 298694
696885 771234
183944 955277
711011 467173
363560 397988
392703 442460
512052 35095
746262 800859
517347 572554
676659 15261
705856 99665
244320 791156
946018 79705
751336 626888
75381 497569
766387 735709
109950 840666
527170 820784
223104 855869
263530 238605
263806 437864
621382 74217
138623 577089
268811 164131
143785 40036
518538 253663
885885 134605
965256 801442
721286 462264
906056 99280
338457 904913
646687 109595
934481 69834
282988 323091
398286 503008
492961 133962
567576 537464
154304 696582
731275 298248
139395 184381
148851 4809
766330 975111
139749 40134
34474 861069
209394 627219
333365 253195
657501 855159
517862 745707
616480 919888
393104 666797
865612 443618
89169 408300
666671 183456
377975 964731
596686 338616
860680 547022
984998 417931
15324 243146
283807 462079
94614 844901
756362 726651
780941 493144
825819 84617
83586 29321
985171 353401
15293 223995
233921 726999
383016 656653
59009 681590
20501 766185
656107 557404
283604 398053
338018 915741
134016 621622
905296 582218
800980 677277
602607 980484
975904 293037
20196 606727
776319 229008
945012 875888
54671 766768
482134 388066
795602 412946
835990 49535
770874 621528
914691 373336
671242 994845
881461 482709
408895 323189
761105 388372
293389 497895
955219 279351
602401 632368
686552 875277
59521 801355
925846 282646
537400 522939
283511 218157
128243 631681
418261 477809
34705 253437
955382 84875
139810 59688
323521 855731
5077 582528
168964 238814
522011 919782
681541 383648
925118 642161
338129 886199
856150 766447
14283 407713
423388 308086
179115 193535
442316 492723
179392 363220
422601 626679
901185 582255
204448 412857
950069 940033
706419 462037
19885 522480
497578 94243
546481 537536
880324 283455
850575 328413
517461 173628
975003 761126
980533 865169
970185 223991
890356 258533
294434 586620
313455 860561
422947 592270
909980 814831
880748 189228
905384 820946
139112 860493
617793 313223
173136 815681
308224 143995
148928 218772
959933 437415
59844 387907
249721 706833
840999 94800
666937 213468
690906 5202
964892 920311
512401 282953
59894 54507
895438 179140
44830 607184
378055 984782
536934 233852
487616 353332
283419 338538
975543 532224
397590 437807
372773 522744
89547 209405
547272 681405
592256 626895
437859 650587
318405 994351
462948 676471
627040 323133
438595 716520
716760 382990
378265 188666
357578 666533
736110 597130
383297 229586
791513 979603
995462 223159
885334 965535
154169 741356
860855 910630
79461 467382
746216 796284
30053 373443
204429 716613
811348 502579
786530 108595
617016 144477
661647 352983
641986 591743
25296 810637
621991 964712
29826 781254
348019 781354
835662 88930
825733 432964
99300 805994
414129 367729
198306 806116
353406 811132
188916 562219
89244 741757
134364 517458
935872 332852
696105 786001
99150 646675
372456 831320
975066 492662
74555 188515
527242 308586
153962 507160
158708 104108
80047 587693
717079 676130
837111 860264
576960 800815
189965 785861
492508 690940
74071 776195
388428 199207
781246 486807
452335 144013
576895 696313
940180 706262
696454 154849
805525 646802
84876 696959
960362 815862
661516 139463
264208 363094
193922 393306
378231 467786
960146 935007
274261 258438
348182 916121
597124 636833
492029 541566
592244 448284
323186 438055
675990 268418
770983 496968
834812 517453
771042 54673
572492 5113
447555 950550
253444 362678
29205 825491
521930 30079
293645 418104
14646 567285
816397 288113
686118 59847
103887 303144
129116 258475
19625 497731
402777 602324
29829 453336
776685 343274
840598 84012
467512 935424
702113 741596
244278 512732
352731 706333
472830 637391
367972 124239
602217 686000
363200 378510
581982 666831
855735 408486
472491 890632
522702 466933
630786 736834
283694 874964
243832 776743
179529 617036
154380 120339
457739 243455
597021 133720
830452 154670
29890 432547
860978 402598
40076 488787
845814 228671
328634 845610
323603 124279
512407 69237
377814 995023
79149 209378
566442 532285
263072 642127
164044 980147
631588 497435
178961 954882
860752 174463
931380 417992
969968 831041
194385 417700
188506 810770
133761 327870
75244 333242
915775 945005
502821 826525
208577 835957
402455 925426
303309 954602
621536 25231
676896 119281
144600 30316
761641 935365
412675 239637
875197 70062
701162 701196
69802 557280
950629 621831
731519 681601
835584 144201
656213 821146
666276 378022
129280 288989
139180 801687
343239 144835
905013 955226
327959 806069
9999 73938
467384 985466
850881 492834
492596 338175
786093 432951
104207 561689
945372 393242
950617 387339
462680 89072
104613 178738
612366 964286
412982 75175
979404 89959
298104 268363
442808 19674
70002 343487
383156 248616
765516 517593
119817 343548
492689 870660
134534 919718
318408 572248
780507 154243
382468 442823
890840 318336
497035 487398
353142 179172
193518 701752
383439 403322
770867 134428
50308 193584
692091 885555
557382 964211
860677 989831
198761 906010
268071 199099
472463 607613
438516 443123
517636 55087
756341 830699
402463 954934
54443 811247
467429 4482
750499 239288
443643 54293
964940 392752
318745 104471
482639 532132
158417 586937
736373 637666
373199 148980
801189 760967
507312 19763
94415 443019
755997 960103
487488 875526
213812 601865
800884 776836
781324 676098
338215 392602
831238 860433
547139 780902
124135 74404
124242 30055
601729 522220
959693 95348
885470 333166
606385 44593
940404 955775
771348 577284
855368 79011
163385 597169
297951 203664
219182 572506
417786 885802
980152 417725
373586 990050
616267 323174
436869 288497
766390 308131
725726 741991
357899 467959
278057 143629
721395 323480
29148 745526
622203 895819
477792 502427
84401 492570
422431 278272
970162 880869
437629 646904
602447 617258
298384 323191
159280 14605
253563 821065
154053 964666
566504 527245
203890 771722
334150 865320
512141 820269
582740 767076
692139 198777
278955 159374
487615 955047
458101 5081
288522 591955
607434 114433
174310 105318
776072 14700
577122 716117
108917 159008
129676 407543
169368 587446
337721 820973
168179 183900
756114 820610
90463 511948
662128 64666
756875 949856
810651 194367
612659 457465
775675 39684
228885 60090
84789 556854
666545 228951
204519 342780
527394 935485
115069 388150
781359 229235
612418 104029
20242 139365
388281 686944
134940 358127
486977 269144
462921 363596
4483 766789
945476 557390
403273 398120
904807 522257
367934 801013
95004 65410
915739 547630
318617 652040
314082 49391
955098 985057
303397 547002
223815 55263
124513 253722
194188 402655
909914 328102
154402 248476
318385 586959
825781 626477
675893 567426
30720 15642
984656 681573
537452 482852
806212 557216
233478 969866
338759 845639
502073 776130
218842 959978
194082 362623
412622 447975
706998 318226
472862 567502
109201 766235
69460 870552
781228 292746
646501 970232
567785 602550
636863 517495
482278 611734
761334 75067
418164 811349
985480 602419
154197 243190
382476 463006
621723 990312
508109 402504
602166 666503
432595 263262
951046 706597
900311 39914
546911 413085
248623 164141
417492 105185
840312 930125
278543 278406
179669 248516
795972 984989
25261 547283
233665 755916
129137 457815
388761 189070
939157 806667
209038 701633
342895 392220
143813 412656
816004 353415
651082 994618
641640 756681
501889 173769
228630 765698
174810 572890
209091 552346
128973 99238
159070 338262
10055 700985
930463 54439
104189 452491
198093 601876
442497 263700
552351 761560
587393 432995
318780 970068
84681 129483
9411 402933
159167 398082
929900 178731
224146 556446
362737 372916
343361 820466
229812 125115
408668 840713
214016 686090
910128 247896
73502 413220
975080 477521
59833 577457
238865 278739
457113 237963
745761 870358
109179 889866
705392 909637
552085 626506
801470 138764
333062 44680
682126 914906
900063 914923
353313 392848
825310 636990
69213 850808
482728 801378
44829 99730
944473 347838
313054 212966
223699 447425
24949 273568
368765 522162
761177 646969
989704 467497
323686 910294
791615 816157
846287 597025
392806 283511
267830 592523
69875 607406
677039 433083
348558 353456
69412 830718
143984 959577
358073 4839
671139 930242
591772 940614
148540 890604
512146 760522
94574 572450
328540 626826
910199 576653
248760 950418
208889 472023
428423 805354
367868 865611
785685 731334
393908 945424
99485 621300
447557 258567
40058 398619
930435 169490
720952 876108
477163 189419
950266 417978
816170 691655
432848 169425
944299 606982
242892 870796
507029 661954
183766 99712
64994 108990
5040 730360
213821 954795
712272 59571
716038 696656
446798 223984
323444 362813
810871 910447
154843 537282
815903 468106
855852 635946
74688 806049
755296 458640
94487 507950
660797 950093
700644 50447
631623 458202
134343 487025
502345 134325
736500 785928
497737 298185
975341 472044
751662 24931
671897 497399
332485 50244
388158 169151
562138 203496
562054 60034
383767 472354
69278 273909
44713 890465
45510 213968
15573 69362
482251 721231
397725 219434
735651 690717
527725 891224
556816 273524
765644 452166
507535 442684
711451 916129
298333 104975
392225 726676
611276 944917
118983 238810
284112 140283
522164 423299
576963 40093
164152 447322
980039 154079
632486 576863
735998 19697
403112 288773
876038 562441
801792 144288
293718 44503
477523 322443
258856 308578
328487 666339
870900 10256
174105 328497
487491 970530
308986 367584
715616 119740
930347 727173
249798 258543
387998 318971
885420 483162
980159 323632
502421 462125
780938 79820
855916 831068
821138 462683
208878 686906
656414 269080
577253 442781
453179 657041
497759 437728
462189 4595
208791 388066
751475 462377
512138 169092
869764 830516
860799 253602
840052 129437
517951 189222
736078 168991
935486 163826
134488 54913
318256 208884
825808 949933
880374 736656
168641 760758
626685 482470
562180 701298
159563 996057
333366 974909
492593 273494
70003 258597
438300 631205
14939 54856
805844 363320
59591 651769
890619 104321
492645 507309
731234 99390
407747 144690
686857 472758
318448 123918
527956 169661
989889 815378
522667 990380
979908 462887
572205 886393
547651 785448
722478 348254
676805 333755
934989 855714
352817 478180
482333 218422
318643 229160
537405 682431
726602 462528
800910 70575
836121 149262
159307 855629
527332 467353
591681 821041
333272 627169
124333 900404
148965 19604
397473 164411
254291 49455
666724 840179
89406 40330
651464 288831
990253 50414
770803 631800
358514 343004
667343 855522
233568 751299
253473 139252
15046 606474
984367 621473
154310 451995
805883 959786
258089 860845
561919 353102
637116 974660
900102 497357
850837 572318
885198 765902
49859 54354
801368 865013
378388 547311
239031 59512
443394 775890
989543 268987
458242 188883
561649 373532
716530 174343
208417 105304
363767 572336
989809 811490
452032 14491
388628 144323
606630 507262
169429 45124
735688 452768
780540 283752
626971 760574
134297 875240
915493 407885
118834 457313
905576 641267
682207 148855
437899 248387
99503 188523
915293 985438
144438 562229
308373 119134
751809 453420
995242 577678
711269 20240
293901 796469
412812 30088
442410 607218
278622 318611
248524 49209
14711 214257
298057 303825
502453 238224
378233 880259
19537 865622
531324 353610
383093 542696
969744 776306
900911 607179
44386 393675
472476 516728
368130 129246
382999 457674
890503 776164
333465 969848
785545 274072
875691 949774
253826 289116
347864 193668
472159 806374
308405 9972
551894 143930
681304 60253
188694 677027
223467 666760
412650 940797
332630 417814
443269 194647
109618 751361
418519 537240
174495 517907
830963 910399
492569 393264
323415 34741
806274 940854
378342 870508
900027 462980
279079 994915
5037 567126
64650 387747
929834 139078
313416 263782
746539 886146
786248 846756
821268 871094
581965 398516
204149 472510
626893 691760
591503 835999
945482 59239
860762 835611
606573 496403
885432 631611
39762 642026
587616 437991
144097 357761
54484 40294
209116 253708
959674 681836
920182 428230
497744 597341
820532 706286
636471 766614
567184 871070
825568 850433
398304 323853
178812 632035
387143 84833
910146 761160
935752 945591
979607 477788
990201 159335
442802 875328
433072 612267
502768 89884
243675 433008
945809 741250
49482 279279
880909 710923
422738 701073
880302 462729
222981 860204
716581 672277
298035 148365
169083 750814
34046 681739
750717 607385
874959 129742
34473 880485
114674 547788
347955 382466
174186 134052
726260 144652
910149 253726
432748 258754
682015 905088
248642 388052
741385 223616
393663 198655
870488 288307
118814 491728
169619 821540
487161 169295
59687 467830
686877 129670
770351 781283
313509 572092
561952 253428
805246 612268
621111 39282
860746 562177
403375 626582
163647 317899
119895 64430
407462 407039
49739 164246
845069 288069
746017 403254
304539 597081
388047 283405
831006 696578
417548 960100
249177 273471
676947 34230
149311 408365
199186 631386
587297 373043
786276 780851
293551 616516
323695 348834
512126 725982
458016 830433
254251 890528
581884 606757
567465 661430
586452 492610
785497 985334
602037 900751
318405 293400
740764 283690
94410 452541
970280 367944
39930 358108
457721 662353
960487 74811
323187 213514
607292 731385
607079 756678
258631 955576
293294 532092
587126 363094
567235 940602
840901 671880
929890 696762
795680 34467
332729 990001
50402 552550
611359 597143
442530 229464
198793 760802
74445 282804
363547 597379
681344 801266
467637 248169
776188 497271
94171 214391
258285 626500
716243 214036
482731 711944
975480 204212
129274 228466
716118 457944
750289 920575
810610 557810
925318 273582
114460 965264
452879 900088
746308 363550
776059 826299
552318 790660
826083 731817
666250 551733
292981 661558
502876 851138
64410 462768
691709 597307
926054 660819
875279 20313
861130 591515
945606 705936
279153 825765
567059 965028
721208 970594
751328 333507
900903 318635
123974 761461
831035 995789
846374 880256
582110 980063
472094 368387
288481 408093
188854 482343
343146 104904
442461 308057
382652 373088
481899 169689
462728 492326
576838 154121
601693 974967
850822 59759
318186 597121
378108 736371
677045 736006
149301 980362
303503 661421
965426 741632
452555 312471
810939 791362
10312 398611
965415 885637
467592 337923
273648 527249
357967 596614
213109 726200
821414 129561
651554 115519
597515 422876
114841 626486
462442 10242
423165 208780
985632 687122
811488 49767
925061 89692
473175 249089
830524 10132
756676 452731
108949 15250
208857 611602
552217 4598
810309 815598
686637 442785
477658 800923
740984 308073
342610 278445
805656 39955
40030 656925
865721 328373
805318 348177
253757 617100
303126 651309
855727 676854
14780 453543
627330 612141
650953 437724
189606 258426
388213 372912
980363 522377
228776 263272
631937 865555
886010 537565
521937 93983
297815 970514
682121 626146
413121 65284
467881 536670
929821 731694
632027 551863
179023 557862
303794 756916
965654 159895
836071 308608
750650 243552
800787 422530
134729 552032
124165 870102
104219 890611
407468 606566
453008 696320
836507 607032
736518 591755
790423 790740
347759 34897
965289 98860
944952 508358
144975 482759
472269 939977
34719 114509
482185 806214
134460 477441
939838 785874
542118 152986
44472 427829
298521 965056
910612 105134
487646 680230
388704 826190
597152 717233
586274 846391
34528 64624
617294 527157
433047 432910
472802 915099
392910 298171
423441 382730
229575 865991
596779 547529
453323 219020
352929 606130
368521 482195
269081 985074
726133 318493
99609 313589
821166 497872
542152 367331
452469 407397
75204 690836
721539 268963
259286 835774
154258 716267
353633 328187
477905 263220
950200 597395
318346 268902
561454 143659
647099 741153
273765 627170
9394 810730
11018 119231
636793 786194
557337 985198
388666 596673
706913 273752
920415 20897
597326 114268
769827 378215
347940 606770
801313 532242
496858 263750
483132 233872
577870 865316
288635 274269
412179 393719
188031 826354
964797 642044
551558 273722
522343 143954
433374 507536
686994 647152
89125 323074
124580 84317
944595 513097
905258 776847
382857 417504
233671 696028
726389 691728
9914 712019
815902 944710
5359 24460
143644 860315
80531 258719
716925 616426
234397 268460
531940 592162
204852 920791
124632 541775
537254 288178
621570 54761
269171 298801
288688 656629
676368 780549
925157 124508
666826 244111
457695 731133
413423 870221
770809 641353
476705 198522
656584 980426
766597 710864
676571 805692
656916 14853
810460 984979
512033 332698
233843 850706
218481 641651
119161 786017
408326 85047
821264 30182
248571 502516
606968 353308
910702 238150
800864 338547
756325 328404
24530 572864
690909 109425
124048 214037
965011 502704
800385 587371
139591 65572
726781 662017
208863 672193
572033 860600
552029 875379
179271 820980
244069 497880
323570 740785
780729 791107
945125 89264
681438 687266
845736 727184
801348 925700
755981 775572
228719 935036
368214 338405
357023 845874
945939 398155
591929 745961
661034 850632
391949 791188
502840 402870
651697 303846
974492 194181
835622 139188
4653 801423
502106 631834
845366 954640
223980 786279
582176 726868
651059 527552
896321 358281
130035 527672
657091 631806
954564 114145
596398 850434
572173 820855
89312 453239
990471 791498
770906 427486
313184 637484
308445 632590
537203 727233
44494 323997
816019 960097
960270 910060
901373 5102
223653 273691
287587 443130
532282 601736
885894 950433
90093 10247
114198 129598
292660 806404
44832 911076
547131 263235
198683 885350
921005 268196
34293 437947
243424 706411
59669 203845
791097 54980
920454 482537
209047 705896
463190 602148
452697 746471
219130 228858
203823 681369
845818 771033
776178 985048
612465 308247
681978 647075
25045 199024
706665 143445
517261 939791
836190 223607
373148 915158
735999 950304
457363 537659
825521 890436
920680 930096
44307 328530
731187 880941
74899 557614
830587 720450
756230 392956
866149 388176
944924 984607
874977 89826
204060 622668
129598 70524
377852 885000
606905 985363
706825 796215
453432 34586
114520 994823
59118 264191
472068 253534
238903 84364
84566 452758
323628 323108
721837 801007
432334 24459
537192 467503
870075 468264
636639 666871
477387 183734
347638 154065
79250 183807
990099 925397
905343 731678
267848 587156
716686 576798
442616 950237
54884 178816
746231 144391
84829 24588
24364 363148
234003 871187
64256 223866
99537 25370
134876 85240
677553 193667
516723 159417
338153 193632
408800 24322
925789 567025
193785 203705
965095 836134
35103 776303
642008 333990
805617 537766
477245 656363
909975 990230
164354 115198
721621 567458
249562 338428
199330 4926
318098 980104
856283 224273
179097 726945
905831 869950
45983 209109
955618 686706
234402 666261
791670 636536
900701 178745
656865 114084
59510 114298
746516 153967
264052 512568
985409 487609
189410 855167
642595 104951
735843 248319
651948 477476
338118 363052
596193 9710
248105 816450
790809 477948
89966 561686
298254 119854
647071 119551
224364 63824
596991 945694
910256 492722
442586 537214
258265 203544
666749 179856
129288 397644
786310 283231
880778 15227
731063 433065
413048 472219
194614 855222
735644 825743
909941 74277
318102 134482
785535 123999
114152 273858
318625 556694
403283 861216
228902 960465
55006 284074
274166 795808
229012 492683
925832 786395
700767 715956
895584 726598
64466 273342
671431 129423
746197 10319
691676 318190
502135 223645
203999 875264
562051 811731
437598 775630
208543 666551
990000 263860
79847 323196
403079 970244
532631 139411
597373 194305
587810 606428
412629 780914
985573 528010
830865 298575
980112 537449
602941 134736
805834 626940
338137 895487
363411 229030
676373 388127
472500 930251
556668 298947
537214 656902
671469 831214
298679 487581
397522 149746
707296 427627
657230 333279
845722 497972
353582 109684
909483 70226
622134 587246
84946 363109
745866 662264
656519 273279
298127 188712
721556 592169
920247 168698
29393 129303
74410 885350
890438 695663
935027 691615
273524 74724
332372 457022
273997 199388
716666 29460
477095 134875
74392 75052
168977 442884
955042 318063
586791 488451
189278 782137
204529 790401
826024 522496
905346 253580
338373 551558
880605 676215
244483 173739
129644 850149
647101 283181
283204 283259
378379 54290
815502 362118
720790 865581
114498 397957
860497 572427
119661 775861
268353 636565
93970 820918
820898 343186
383270 169971
333511 422443
212942 701519
860821 715583
443320 497245
980258 741180
945241 492409
283158 174502
209197 840832
601403 213741
214377 54661
472998 357472
527900 104602
613091 417785
518284 760625
358315 632248
422715 363507
134722 591983
437549 636903
387709 264398
144179 531969
422989 666380
716425 681839
537129 139432
656427 24710
19883 298336
179216 995186
557462 581672
642551 139226
512472 636736
875784 661758
616655 129132
14792 253623
294403 552270
641685 751691
512684 711390
786188 806048
104081 855863
706332 124976
84945 920205
352697 506868
512503 676484
637270 441863
283283 313540
502070 811148
721242 144307
934475 990164
423102 367779
20640 129087
905844 558019
49539 238913
974473 94509
447335 661349
552552 35078
492393 74841
204075 19496
910371 114590
750487 134286
428658 716802
263377 328507
334058 820822
885516 770990
546477 736195
368267 382575
59452 746166
811236 233997
816162 825458
736352 123882
478380 571915
756339 621254
134260 4002
815729 567275
343409 935283
934774 656633
378131 233667
890892 751728
99751 716615
294579 139404
980015 596911
253433 631246
671985 373208
592024 910896
830817 358469
483387 512547
243889 387740
671335 959817
258458 622095
60198 109294
59415 497358
397610 586882
104508 59672
69524 467951
169338 463065
921049 711588
845615 939789
526601 926398
58952 820847
646293 297934
178571 219012
621877 407369
317632 741733
606760 249083
915506 626800
676423 214040
781650 134285
233899 856784
860273 482138
691641 422594
447456 322745
328302 462701
104509 503389
253709 781172
776085 830803
154575 875252
954984 761200
248988 740688
503126 14480
631645 750716
726347 49599
85007 303522
616653 357927
622586 915328
174082 766227
397985 313547
25197 104828
453256 840784
875366 969240
671498 59637
402672 751444
939577 716417
109796 826332
905429 995445
442924 616934
830300 611999
104839 542604
124382 582122
914805 994859
39328 711633
318705 895343
621546 840227
850945 959142
666754 9935
910621 503128
666268 572511
25312 955427
392339 482864
572326 527431
646423 944939
173786 960064
123835 775743
712407 353336
89787 676527
900424 368227
169161 408266
467267 939664
572855 825938
780267 541736
208320 138926
626449 129364
556851 383039
959773 970340
925173 69919
517601 919901
622110 353236
164184 128509
552172 970452
383018 501970
710660 284022
153923 830986
617339 239088
248765 74136
433197 756437
706408 423719
711084 363434
671805 353450
502461 497041
820598 442367
801714 552053
383582 701726
507720 726171
905597 875874
880720 174262
836198 304154
875122 472603
672218 253889
59267 143883
805580 772116
571611 10499
950112 378167
189329 875707
959858 29605
751261 681193
835933 378567
969644 905628
541933 949784
771149 398315
15099 587056
676786 199048
468069 89506
800939 686014
551955 820564
850723 840802
537288 103892
258933 731789
746389 805921
980405 910688
223726 84027
437525 910897
473265 373671
80094 104660
715954 159201
606468 169477
123972 387784
551817 721017
114134 188719
647343 392867
39711 298611
501956 228432
54852 258773
466956 120074
611712 860378
10455 596549
826227 264450
602666 422667
606904 671164
377754 477877
224040 412824
677078 328662
556780 831103
731209 557388
358461 328318
870948 462619
398049 541901
422650 433008
257887 358767
159135 512500
407446 277974
39741 408599
343297 850810
979786 353158
935745 756118
561884 816561
273603 139843
597711 213981
362835 178669
144196 333048
24897 397307
238796 959720
497715 34730
741700 29802
258389 513079
617045 193801
183707 312569
686376 239019
561944 905748
989826 597212
741397 680999
308708 229338
373440 139649
377985 348298
293238 565983
269045 203624
496853 149653
100079 914995
846105 945624
870472 712158
208822 268394
730915 133603
427935 273884
25291 169638
954790 681642
870855 453509
746635 243738
307830 930254
378573 80182
273555 691622
100019 685713
473216 860339
671472 198894
378349 541868
149698 273978
960129 492516
980292 218330
313135 39097
248042 710968
437632 342494
521841 676460
517760 756443
257635 64301
551965 901205
34316 466725
685737 233949
546902 408065
427822 134504
607036 50157
169088 836605
234380 846682
89285 661667
836371 278494
203827 253898
113992 920807
616425 691602
696077 861178
711778 329170
34028 691326
801103 756065
606981 59901
383134 263716
402493 84486
14967 836045
253457 810504
392895 607250
955005 641360
810820 204125
108814 114398
129080 522371
721720 487337
925427 159136
114274 681873
114428 149298
15134 348279
243793 468069
25126 298247
362454 159827
284248 412407
930134 901001
403376 586440
636710 163982
532399 667228
437173 586854
487372 770628
746074 880703
939625 959668
318316 988931
990068 935020
905474 15166
427569 875883
964830 174652
129928 725871
189561 312970
457968 447500
353147 482280
945999 263579
482460 517702
652038 756978
591745 602215
775701 59774
213227 35123
671704 637295
621542 656194
442289 984419
602329 841001
457635 139079
791624 801064
755859 135002
427195 563331
233811 363165
144231 363020
722275 881117
313652 651546
886063 587048
607244 452456
706129 636708
741584 741171
890835 527478
940615 35044
785776 258507
442902 383137
407353 532962
750728 199101
925314 990006
781802 612336
163594 487686
383090 267923
666763 890440
53952 556505
99607 606533
572108 169328
228541 701138
442790 750652
65432 144724
303478 184021
382473 124047
20678 511846
267998 159563
472233 815979
74720 338539
821862 910333
184621 676306
691716 377495
422611 30111
139266 772014
741994 267698
726103 920678
562046 303168
259123 362844
880570 761445
358653 258372
776343 591752
567596 621828
890564 79456
233524 935657
577370 561904
537325 89411
627435 169843
522473 647136
427421 163773
268133 487090
621566 50161
363439 437405
468494 159590
945292 806570
422125 786484
821225 781665
934921 642009
487777 661681
805951 159057
691581 815685
114039 258630
34784 70058
189256 179400
572115 676360
920878 462861
64550 661697
770918 45186
548568 496971
760914 810751
979902 934912
407753 517523
228618 671518
512628 592071
936113 532440
512010 576361
537844 378590
323183 358452
25010 880617
492759 825546
59807 254130
766403 701520
512590 750689
94906 54946
527650 442924
592684 154174
711222 791059
178898 975309
159667 209180
247853 392484
775742 388183
581840 114924
760879 916301
124513 557281
894931 233649
293901 731120
920160 518168
781910 606996
835631 935011
393484 657146
133739 149660
169407 846234
294195 143599
920709 134037
24328 815982
741400 662142
666969 836311
954869 890336
259072 348323
950094 442979
890542 995168
692445 363895
532365 915395
920445 556680
154000 372947
681726 94280
661656 940193
542370 378022
820353 284041
39568 94093
208754 193817
497276 910550
387760 890642
94419 144283
870668 647344
626968 662227
94387 413133
448228 567964
193105 959972
572417 621877
153775 845932
149439 691194
377628 9981
656943 949891
397974 119983
174558 49378
716886 34846
343609 657049
537072 800985
552287 18984
562749 343260
935588 427373
497266 667129
984899 383619
54628 647023
959481 268830
457336 467604
443020 169598
214609 577376
144199 820972
293676 506967
273608 404038
169708 84175
577022 119414
343256 707123
388626 422889
880544 706319
353080 194680
224720 715975
228673 835984
412697 612458
925249 25552
766579 472673
338230 443454
303693 393453
79886 770796
940550 243825
54506 686071
796041 239053
19338 701236
929899 521757
387871 164528
886042 398105
293843 945193
487214 234589
418112 715756
293192 642210
790416 34628
99793 820564
153389 229167
622356 726548
407985 288887
30302 164193
218736 342816
870213 258719
860732 179320
422436 269218
567300 835752
358062 293678
447664 522281
124681 552655
468417 716284
676421 706125
895510 761030
368266 219074
616976 303275
358109 114243
418421 742078
577747 766079
481810 617269
94029 854930
44947 825808
835850 412393
865745 607540
29696 362756
452111 875397
651533 253705
746102 731543
128719 64049
726486 951013
437272 134264
910299 950823
109217 581924
776373 587004
781183 99609
368002 601539
647038 79731
916041 765147
442325 725785
586658 402731
24659 14320
353667 979920
278263 288327
253864 492734
780605 651982
731568 184574
49411 526957
934410 462511
124554 995016
795842 611924
775751 770761
542766 383872
919842 383014
765915 791463
984457 572213
10322 523166
54710 299212
472495 646676
531744 492208
487372 871315
258883 437717
567350 179413
407338 204880
273973 462649
483211 681703
377002 512724
456894 328332
233512 591535
865755 751335
691756 34394
308422 905214
582192 501750
5074 780147
407809 800225
44081 960099
253239 54723
293901 233534
452975 596948
567704 467097
209200 219271
830272 467750
532369 482895
229284 656922
686361 736822
979556 158665
979881 373196
368419 835830
238273 631576
99657 44133
517655 731331
816258 676684
711083 477929
249156 438667
781157 845709
203761 193865
462662 119272
10280 20080
223588 676553
258897 726573
223207 268539
657389 437244
34726 224078
258707 522158
572208 243814
487757 861023
129620 720645
412657 636679
576490 64310
582144 443415
681486 348167
473063 74885
956034 875864
299280 577142
472844 244033
891085 641286
587630 741712
427520 4679
760960 219007
692120 69752
637128 607206
407404 209516
492936 646759
457999 29688
536878 149202
84722 945350
721089 184857
791426 835931
731819 198588
224169 497412
462715 373070
886648 730655
298618 607267
308442 308095
616998 582252
35105 955071
676836 984897
950176 53816
74939 209143
631667 323082
617059 830699
138929 129214
895129 561402
278065 781393
388275 642215
840572 661045
367741 373781
377651 492390
293465 248854
427675 736830
154854 940426
935092 582415
751521 939557
128601 821408
919966 730822
93687 796217
636191 507667
347487 347952
244225 636919
83939 392322
368162 761752
497551 602073
826244 512762
860922 422601
422468 55099
895194 442302
333803 596744
651367 144037
313864 701661
438009 965839
10301 556983
54698 851248
811349 875949
73886 959912
761146 198338
835800 805804
517412 726209
104140 506987
716806 855532
632327 347482
567784 726420
442831 134788
891248 950523
930332 880261
701514 685933
452901 183871
611815 343311
681332 293639
801013 353423
148872 427246
776717 925415
696524 636658
348156 538299
471944 352910
985352 591282
850618 268859
561833 5068
979504 248841
855966 413298
904493 656547
701291 45023
85106 483205
597929 34904
149176 372978
398309 94893
616956 5086
642206 866582
348166 114349
526790 582900
313596 885490
606554 856006
507683 253536
656702 184345
875717 711464
596912 19737
273345 681973
606907 517286
263761 323048
413195 596701
179268 835643
870999 840344
273581 845346
173601 348318
338215 159165
731264 929506
969837 472965
177708 39317
373328 546748
44686 383341
786363 14448
715784 373145
94507 745420
627302 203746
476508 552272
293562 681257
666859 816499
567178 100414
607318 860886
189450 750865
899701 925444
871786 457669
666687 721386
353233 542075
940806 278932
626898 940346
870418 492925
214339 780977
730761 806180
333485 114268
352844 925229
870300 89758
731411 377569
990906 233865
596578 621503
567482 109794
707394 133977
109431 148808
845217 866075
775491 243695
532334 40110
557016 990182
696159 815602
208834 696830
363405 680955
129357 701344
811057 979898
885765 14704
19848 964943
247861 352947
611835 755945
169348 313241
402375 591185
551634 487527
93901 423212
527295 407952
517154 701581
875317 293934
79238 169489
522542 5930
681926 995206
94674 238688
159682 796456
866283 119129
482285 478197
298483 337688
402948 880434
10367 860318
45555 29433
621694 368026
372874 223767
820830 726321
278539 183726
751267 934931
616581 44942
119327 144400
133994 29976
855664 522784
367605 199449
308747 402096
790993 626123
914859 915664
766245 572345
696801 766332
148756 49710
278266 397792
457748 59934
666513 785321
841514 353032
44547 154517
994618 646412
542018 298714
243510 960284
65394 556908
975553 845763
572102 721688
477681 432476
323662 338632
791210 985153
104248 29938
522203 870882
89418 541528
989815 641591
328156 383386
970242 189208
667266 850901
661729 572945
28984 188556
611522 298778
766131 108816
472792 934846
338509 875285
427726 75151
362989 796408
606571 701314
710764 422446
10210 890391
546731 5494
875138 861587
213448 199010
149025 417303
104120 771390
642080 204382
641881 54415
636475 178828
551674 576830
671973 477469
174210 532693
646679 397982
159051 691553
596860 189144
447717 103928
964777 388253
44368 930418
915757 815868
861156 233556
203904 745751
879799 965056
721422 412516
606567 343541
29667 139201
572707 686112
622097 995476
15256 373287
621797 715813
920491 532745
383159 914938
432725 815867
756608 423138
437838 756461
796047 54201
930699 965444
64334 293328
398795 229192
418205 805838
54561 378771
636404 233065
581897 851099
536643 626453
264158 378075
89580 551993
263868 477414
577065 750710
214291 592382
761628 895302
139494 263537
497794 408251
303360 164736
920748 333338
51052 581904
751575 229190
174179 945232
398011 269012
861342 472704
204398 597352
736770 178970
478481 472641
880676 666994
621286 681064
930745 243378
666038 696222
472107 193391
642017 423088
661627 237863
816233 597662
875666 387516
178720 168871
840755 805221
461983 125210
304424 646849
243854 990022
54510 577155
143966 935593
592060 805996
985113 372772
477904 238073
59004 686157
781558 855683
960512 994621
522070 770718
273515 935357
358166 637529
696134 199407
129039 477440
751600 279012
577286 417557
318576 935685
357466 502728
616393 682083
855761 283516
795423 273260
890656 656335
194256 587536
348246 865782
561972 949950
218575 682176
338072 835980
358676 69528
994644 676349
596802 930292
204145 711526
233539 980066
915220 164145
696052 477107
488754 796283
507403 581693
969616 532245
104932 845428
557709 388555
752324 218850
29590 44684
910412 717330
239030 318617
228405 647419
467731 637059
373248 856033
239005 821223
760683 760954
691844 133880
905669 816308
95211 781622
452526 472631
432632 99265
472839 661616
486958 686866
735826 50095
815658 985570
646312 243378
337936 949861
477216 483225
134515 890508
751707 567762
497345 651480
144156 402973
502491 766172
571662 437650
34104 458227
49803 914973
835791 945035
408020 59424
383134 800468
298424 213297
880718 900496
94542 502605
343232 368305
551942 104083
611691 243797
417913 502742
433054 308525
875846 841279
711178 25464
34584 562364
398036 815854
547269 323495
666668 716431
916165 89902
706421 741050
776057 990446
740664 760964
642323 293416
955183 89739
751154 129519
174309 338815
816627 79396
183996 512431
353402 746408
59140 900222
234472 403179
875612 213407
313746 621774
224247 910128
696646 293423
890240 44630
766180 158910
269270 567856
84723 840958
467202 163604
423156 692059
69163 751330
771140 99737
204175 965102
293998 875502
125151 596462
850957 631570
208360 134364
889960 39459
756693 671156
457333 975265
815680 338029
990630 164277
94931 612363
462992 388817
641673 427743
592695 418321
248547 726022
831098 29943
786465 367552
717106 507322
731014 656313
263110 527747
278529 871103
547215 477521
696570 522489
835747 919978
238616 303055
124920 632412
681829 283788
238908 736304
586902 64891
29993 676749
233548 626180
896180 313833
208546 502816
80028 59489
282991 766314
114875 597599
760603 711345
900630 960161
472524 238787
287967 621749
456847 850801
143858 189530
50280 790737
462525 740881
800914 597539
825790 716192
557137 592036
164478 750859
328023 214064
959775 447145
49309 372877
159272 272836
934910 706478
651924 229944
536929 119584
432776 133917
731552 139294
925177 666176
253753 337837
119761 522533
974893 64104
930444 552386
692034 44496
358744 876059
378110 438581
676910 238759
891182 452662
30170 775879
219037 820477
413141 512380
447969 526947
646514 592473
463636 313240
353511 208935
45508 700796
284324 612407
716182 592308
452857 288052
756055 118701
328094 865834
467081 208606
906011 736839
313735 507513
735475 74275
313502 522332
866088 268144
308200 169104
54564 45077
49824 39945
766012 313706
731328 642108
134167 288771
468194 517131
298064 921264
363536 317855
253707 840925
975225 209148
944467 308575
378667 596651
811182 428549
517294 556953
358145 234326
512480 114716
164353 821046
562085 994296
60277 766719
114503 840511
447919 487433
363547 666600
820004 686333
333489 104240
448032 159724
592512 716449
258572 666816
616593 343390
224120 338004
64595 622084
392684 491637
19648 527165
770515 820438
288724 233474
602607 64336
994552 706360
74975 631989
830640 646811
726322 313259
670866 119526
448212 970029
467295 781057
224059 14138
885825 925746
44427 616938
104993 4885
527715 418334
74305 452576
94210 751348
581665 820871
904824 636659
885385 462505
916053 616970
363314 14535
517869 681812
582383 513218
552494 771030
796600 721469
681453 775590
541459 29841
387976 482558
368873 89579
641246 114415
732062 392842
358650 970876
547918 382836
940557 163836
357599 173931
741962 169000
427515 153931
183588 965091
647092 622200
696425 567676
741346 452173
273508 901068
925668 686546
487490 617190
830794 35390
432753 59182
711676 89079
890612 770843
542494 64851
79790 964986
258251 123946
930411 328954
169144 169269
289572 49925
213853 378339
806350 566630
68655 114852
114436 791147
522666 447534
358923 626521
969934 975137
89564 398225
159596 264073
606514 766200
487169 810695
905017 293576
80294 731059
178989 378243
243263 612702
934926 775648
944486 213819
526906 521845
771104 831196
417984 144202
895181 722145
288915 527085
358254 417655
741189 940505
611705 84643
29301 682091
119742 393354
890482 10358
59569 239229
428162 194135
532556 671927
352369 258953
551908 164488
617245 850905
382979 367668
592062 954730
566216 681580
184197 821770
338426 691750
860525 766531
661240 89819
890284 955234
34985 34626
920217 143972
800597 741917
527561 373394
825446 427836
288460 99312
959805 238779
835398 830786
919814 294127
24592 741295
905464 691364
268948 174517
74760 796185
64974 219122
487737 701670
581623 707251
756726 53969
139604 790619
397574 372821
497509 204363
154474 522179
397752 368027
253963 269329
447337 711130
577126 566848
736068 417921
213581 910496
70064 9382
720815 124202
969721 352880
900623 25059
203977 955047
54475 248822
402834 816106
289177 860456
94129 662237
631804 929945
29763 731545
482386 825974
194184 626907
716116 357221
467376 532005
158621 696699
109308 323228
666547 437846
273995 94566
706372 821056
816123 293584
462870 945671
806285 89517
223574 288440
959668 711862
676787 547059
488015 781302
626207 334033
631624 283939
989949 890335
194479 79856
677507 954728
845814 513267
109154 194259
89239 144453
218645 134306
984690 776143
541843 561698
10131 492588
741206 746552
780331 960278
850605 367882
825690 786222
900702 294053
899951 586691
746681 850939
314254 771461
786237 762164
940454 597291
845948 910541
557602 208298
149327 448119
89901 886076
775576 701747
288530 602639
54342 238961
517092 666700
289356 756308
84751 910747
611447 725615
238971 721523
293381 442411
318644 825921
820808 935394
795972 791078
761317 725960
99524 959871
571748 557310
989855 632311
682252 606323
731907 193552
39973 681046
855770 995357
765830 810703
148896 970614
497924 243495
805832 935810
661997 890847
417935 188304
596844 651314
526839 79273
945661 74700
572597 964393
710980 895803
671764 751611
791259 451635
84101 536948
547026 621938
302786 916623
203703 581905
696605 840562
357948 308304
165015 79740
945374 483032
656575 816205
611694 75386
294132 836099
238716 940506
69512 477663
368095 357574
995087 805325
179323 129062
478112 870984
651649 771251
74867 725788
517096 710844
9700 343368
407930 307954
900437 905721
770850 860302
368421 855167
616628 632162
970522 408088
806158 323899
527196 826238
318642 278304
532624 811693
591738 740932
636888 119649
55451 94483
546904 731152
686783 726798
706069 646739
357924 691600
253948 179600
253729 248704
616369 348680
367934 562394
820914 646681
746624 928975
757017 368479
338602 582321
885047 547797
661282 269092
815661 258742
14768 10135
452516 353271
35125 169031
591892 666784
467597 571700
771112 373527
402965 15046
984759 303609
59349 398200
845378 332671
805749 149318
591925 437494
985214 911256
338815 736876
577580 343545
403509 820380
701330 138512
363012 632062
676866 841744
820488 4946
626819 397529
632045 711014
378003 632189
626889 174375
198825 243757
467729 363680
457799 149226
278774 44652
134450 413677
920599 417535
323320 164748
726214 174087
820977 298489
621542 556460
134635 631862
482604 114523
567147 611715
423110 572595
964819 124529
582033 183888
463858 55227
373088 168890
323067 527144
960126 571862
711235 950023
934772 760699
114045 293702
786444 488145
696764 163688
467809 472440
189014 861805
79445 363413
919994 194300
616780 363426
820751 771861
940308 343834
418088 278735
745717 532145
452906 646489
387184 79980
517045 422149
49033 800667
760931 188744
367816 447332
467424 353175
343159 462992
398312 677051
731817 497379
204626 163786
527177 109237
417302 114515
930770 258857
830543 537350
258573 920311
259339 895948
711663 861101
273668 885658
129471 293078
373526 666318
726312 44508
930401 209135
234210 896064
984996 49562
880641 627316
452761 572562
99017 343643
626718 791326
203717 970486
806208 974852
24229 84548
418066 687219
259362 741432
387781 29630
557230 726747
552262 916113
796000 89862
501951 158795
691422 800819
55287 825977
104516 612127
313395 880107
239198 288474
452906 846028
576823 59676
178990 492580
607615 707098
64988 133908
851039 795767
835755 974829
412004 517236
532018 458381
15006 194312
259069 144528
830388 104129
572133 586615
701256 458563
313007 826649
780901 328175
995307 716241
328523 756599
398254 79434
900463 706691
791082 965325
831436 288718
876076 641989
532096 651398
750638 363169
278986 905717
303313 363482
93717 586481
736603 218741
701924 328012
59789 756006
924819 228541
671809 890202
885924 298396
686034 477392
881043 403149
228640 149661
581952 597601
158962 626609
403504 960201
328914 427695
567352 586168
457597 461684
940160 970138
612196 273516
591949 696435
352777 791567
139240 969947
582469 233448
531886 741533
74549 383038
322589 577114
671268 164575
4495 218493
920803 885344
855738 975553
860322 552473
995468 427567
45248 581672
542330 900625
741927 508079
74846 60429
234413 567727
114029 452856
995045 696423
24509 34092
945138 562352
428256 392872
875899 254195
756202 765509
477624 179035
990548 174082
672047 660793
64353 707219
666902 964747
269173 263339
989370 347923
139834 617007
641280 741166
701257 338502
173973 791000
851050 875822
457691 935377
74895 606750
592004 980346
856236 502080
263879 647108
164922 60026
392783 362943
542899 915139
118977 851058
766390 378407
174492 830836
447869 786629
621932 144386
218612 268933
990325 920285
402083 293683
179270 656016
811144 925480
453089 452108
144385 45712
388263 417891
706138 298180
74938 576571
39713 895206
745898 925651
114044 861041
393084 89769
228541 611200
253670 676205
930557 9396
557307 532315
656746 168834
267847 288641
905571 865605
830899 89609
467628 661592
128961 750883
587416 994310
179466 372868
467945 432067
403275 64990
641609 248548
29577 512331
860434 84281
931209 109964
477914 10404
865880 223928
383391 641830
875457 581869
367652 557009
327922 671667
482871 890876
209093 109667
900648 726480
865919 432615
845773 54782
129327 89385
239387 617173
970861 89606
164348 353888
771359 203864
661402 985282
477327 851029
357934 522446
830456 896206
900877 527150
497209 239681
851176 323346
144902 462897
487646 965330
775530 686157
408072 428145
492093 214058
691030 925084
934914 208897
69724 960009
965320 50419
552182 99400
393174 333705
890695 710510
15233 269125
805724 846937
478073 985237
427920 851329
203868 994999
527338 412998
855941 383329
577067 94199
637312 731512
213844 517457
802089 243661
59702 950250
427912 796821
223318 591494
577191 249029
916282 189127
323858 761698
606098 920813
681742 895224
288156 820558
864972 810354
681521 110180
612546 632228
746299 691292
776368 393515
596941 25218
189041 288080
114383 308349
602014 970828
134313 124427
14572 174264
362768 457194
901543 541843
179223 562273
840996 219268
348421 49844
278266 383623
726222 557215
426640 184295
756081 199058
651489 988947
472420 507747
95234 800673
522019 307461
860297 239519
656213 915577
378227 49939
915033 865955
4954 228605
103972 805466
188491 104515
646806 169122
19246 178513
138638 30076
841066 771212
566714 254150
542001 840819
353186 939475
591654 428000
771370 213874
701360 930487
412684 452287
413183 826566
372788 766476
711301 940570
925867 647026
970208 277993
781304 144729
791012 731013
845352 39229
556769 711371
83432 223638
367829 5436
890618 338677
164060 900456
969627 179341
457707 313444
347213 288843
606885 875258
442203 502391
825343 994873
989505 781393
457474 682062
686313 20438
248554 30006
374063 25377
756865 20280
258886 214485
40050 69068
14519 895623
208937 328633
855269 134122
263285 317886
422276 358648
621729 209350
666692 273170
199339 184356
791294 751858
238986 969815
164013 83879
393434 587365
810685 422821
19821 323536
651282 701442
477846 920507
641442 124470
402535 199770
198627 736003
537960 39519
954833 179280
826072 312836
840808 557526
527977 855792
278735 129866
363044 343471
55024 612605
258228 562308
637178 611877
274036 103845
114362 915207
985086 905568
204116 501331
277937 462745
955928 44698
606921 363764
283676 457467
914759 208919
277962 547123
383370 706622
781446 617216
477062 815796
387709 447611
547763 591792
104843 964679
397787 396841
567139 851290
875187 612276
776388 940139
805963 979905
660991 144078
163383 805648
776399 661521
99579 701292
328396 79987
282910 25060
154683 602220
990569 363535
870474 955974
382717 994963
707124 264203
218456 851059
541526 148865
343428 662374
502920 268733
114888 35124
856218 825478
975321 89124
591991 233637
910626 974530
49898 496946
860189 776606
387821 323811
298731 19482
935452 821131
781605 725865
577121 761664
70199 417916
959978 283442
531906 5919
711501 249329
169556 64701
298104 676412
252756 955062
826073 735673
338175 890356
537552 254240
870408 651872
801520 701006
158604 736647
427560 79873
487962 800251
477797 14278
895609 397970
885639 83894
134065 959571
945648 592356
234024 223643
477802 154079
178553 676338
417520 492104
19562 850296
5303 318444
681563 263097
925663 447852
34142 123925
54161 830495
990104 965742
148255 228473
49602 667095
751020 84976
905296 70187
74442 279050
731378 920562
741279 318020
925423 383248
915396 113941
974461 939365
557310 974512
512359 184713
835265 238938
800828 785898
890445 861079
59925 84220
19876 721701
462781 233255
114462 427628
154677 667042
756141 974419
115461 283469
820861 198909
900712 59390
348384 542080
472769 900644
895361 871052
547462 826146
975270 313410
547499 800538
4994 726029
527895 770545
621698 641849
840800 581510
308857 209078
856150 756603
840775 875257
159722 383034
29927 771062
775463 875428
338676 114858
492821 965326
397954 557303
233888 213625
387701 980150
820565 984871
119705 582029
159538 114338
616396 169023
487911 990913
781413 397236
656146 990041
651869 467521
517668 406914
427506 263668
826192 542604
198593 512008
761116 482760
119693 969740
865893 412703
472965 845321
482701 89964
338441 920642
298760 646607
39927 831077
656513 84716
54631 780444
422998 438397
859752 965211
283200 924899
726174 840758
29493 104751
248611 322841
676978 204661
910309 606767
622226 213984
228565 363473
761265 492158
229269 547176
979785 124415
875941 990269
178980 761400
412514 577351
567358 915502
626833 148752
134152 576821
343150 791188
657137 144620
487657 358504
667269 114748
929607 204096
825573 208876
622081 283882
955603 373110
452620 870482
353166 587010
671046 49599
5037 99223
934994 418531
791397 716758
302752 910347
776577 726041
308352 820712
229099 109513
686798 571596
483137 845637
154116 149356
975432 159377
810605 940674
358127 612152
94892 273156
188988 368419
686752 651329
875728 751327
458045 392758
482694 269375
756332 542340
536300 497003
796549 94631
303185 666846
293868 526653
581948 149399
124779 781369
427660 283576
889933 74262
239339 433117
342839 711403
761160 751352
954973 185281
268483 949970
383099 811168
662121 123867
860610 597009
178929 930331
383005 776562
308069 746644
278981 776120
322574 431989
690899 531498
412799 134264
611217 522601
885575 661312
184533 9415
676192 681545
372585 64817
701165 452383
218866 482431
871144 358073
14815 577409
700985 970402
741628 333117
492764 830839
537216 875486
467871 875669
24934 856293
288201 771139
99746 537358
576854 940756
198901 825662
836236 45171
507403 318979
208532 577540
463268 995402
323228 900224
895254 224330
433593 402958
711262 323254
209218 820784
283780 845488
342518 567171
9720 920722
372719 636625
586620 617206
69041 448154
716768 144316
89849 343142
407911 155166
691446 283987
720705 780965
119143 348225
476769 706319
40391 611715
979982 59981
786390 193739
198193 144010
438428 780972
357891 452326
98802 846088
322870 846494
452354 552523
10138 884977
746572 437020
44322 561842
333441 238817
881044 845855
815594 791041
223853 924385
806022 263433
492895 949992
831001 119272
213574 348578
174254 855691
925659 816038
403101 378481
408368 984668
447389 517548
268675 780832
710537 538384
198484 353641
85072 54743
109317 288297
188687 134704
950130 119331
194189 468938
214211 362985
810445 861005
587185 50105
338040 566626
542238 532479
547525 696392
258226 910498
636831 159217
502433 30089
273615 303750
114447 193807
766500 368323
691570 203959
358211 169137
875066 910944
541356 960039
845556 581838
621987 706103
890635 497637
398019 790708
821480 666634
954736 950101
696634 835659
701186 815202
173909 94321
592367 656528
910499 557409
865342 298232
631564 93740
860708 935631
129431 875840
39915 213975
264251 651164
880530 572082
472117 820822
980209 34480
701560 672056
717001 188952
14885 472661
945336 656272
109108 110540
333062 307985
845617 209415
133941 910287
367551 984913
20810 148409
333127 771391
880748 885800
10652 945537
268859 114308
284266 940984
507417 154691
248500 135255
906166 398474
372803 900967
606946 666696
850956 550834
955930 34421
309451 34273
467402 746192
193943 780850
940566 671272
104445 139602
383857 44589
312958 970875
471844 835321
124195 711854
691750 930103
596926 40809
964890 44461
562262 880495
811012 473191
74612 895407
189149 418180
656350 179199
203827 433610
258296 602140
30424 208950
661100 304024
89723 332557
109769 244052
825654 641808
915249 59360
263817 387973
218783 503017
547196 447665
34871 781109
59368 616721
855091 68933
4213 84871
651813 173816
806360 711133
79422 552457
710859 905616
362692 820726
531857 726596
78912 760924
347822 566622
622502 647292
224060 79730
5484 213663
159656 905750
721438 138755
727214 65115
616856 452422
622437 532628
94011 397734
471899 760623
736141 771117
293785 722380
54728 338240
680976 278369
35498 746027
461985 537610
890433 631586
677122 551881
382761 382675
428111 526977
661408 557418
487771 447435
791775 448292
493014 238264
885844 959895
209657 422832
99803 129527
835564 418684
328637 388200
756228 223319
756486 487795
74592 970352
522410 924725
129809 865604
268796 706555
741625 925732
388105 975034
726283 861197
841923 453364
801339 447404
775955 418013
521872 557371
319045 114596
541453 965239
825906 984665
378301 790908
109154 229294
338726 766504
915210 488043
995132 960127
840484 969923
607331 258344
566674 139424
258907 612143
29638 214164
487083 591647
402509 756381
900075 159311
954812 338595
771051 89759
69053 422600
138983 612246
482201 731482
313722 15527
303607 437507
840954 686517
263433 691389
328364 552582
527199 910602
801411 965111
860107 994983
860712 566578
423318 507300
209081 392893
528206 880158
218187 939619
641934 253568
522113 418638
188666 596356
831189 517363
959929 368757
129449 273287
193904 234212
811152 40611
99187 711557
661561 174920
836007 388331
527565 30494
687084 79802
547499 582200
372936 447580
138967 850536
681871 184397
487086 423092
30164 283600
228791 159665
815399 762030
895502 786559
761716 830036
935195 870128
338239 129167
318316 184109
706200 229019
681455 258639
636761 686289
766274 935749
218733 915315
312832 115190
159434 612498
248289 40036
189353 283153
626916 905369
29411 159250
358003 686104
69996 228302
696474 169679
916040 457865
805701 909936
924758 388248
781063 865512
671446 19328
522299 214349
5679 741638
483267 323395
791240 308293
64700 740892
323094 109790
79127 453380
248781 54912
283652 45066
29088 602631
621794 448079
303718 517248
726455 119134
94910 806024
49714 686055
353029 850551
422641 775478
333423 646287
268581 144655
154602 623177
338131 257701
313188 830527
164515 532526
960209 263666
99461 641406
452921 765799
821298 69089
59864 945803
84530 159494
592237 800734
134174 926108
939908 526907
382364 666872
238545 865675
213851 58737
890626 850701
432485 781187
357428 483022
403071 169322
198577 298613
199137 920348
597145 517867
845786 318362
975130 835909
288263 741430
238960 512564
965296 899950
572171 879739
597119 109040
756157 115057
537267 403076
776223 84928
672017 691946
840968 482027
880313 800743
756505 333310
646879 98725
936377 344082
706459 348539
367403 263307
9261 372924
5029 458180
507410 208350
462627 407924
641464 223390
293775 69092
263892 209329
89661 656713
637576 303669
25224 422963
911063 895013
675978 562277
427899 188253
562612 985011
164041 69623
173590 989506
785713 457586
979804 517397
423252 49509
232997 965526
29705 155057
422919 412959
741698 652270
348212 492950
716675 154288
691498 119202
189366 925544
542867 282688
811003 885001
5055 397982
955293 845332
392358 765524
283840 318790
781518 184229
780617 209323
741773 825923
204150 69625
860231 751560
373723 368512
114847 69690
994494 641538
626655 29795
119688 800337
875147 771343
746405 133680
964490 652420
651791 715445
244453 293711
352827 198902
910894 517930
387395 522353
542132 123778
4474 277864
477676 577335
582073 353389
179031 711208
527173 552673
661969 74848
93769 368466
974898 870322
393292 253574
781030 24664
5022 995283
721321 945192
547228 342471
89052 900305
124324 577172
541198 621325
50260 676066
771183 333877
945360 551953
9091 328291
79814 438520
254023 487770
970115 307828
447308 507037
398972 567129
452745 199358
770631 30127
711770 855656
894678 293756
870731 537281
606875 75059
826181 392853
368170 472219
368407 378014
980140 79076
895356 836073
189515 342972
388071 39049
49537 209243
125438 427813
721452 836307
716199 766040
29439 358120
184230 785753
562236 542143
826112 946117
562700 566530
656810 910277
293997 676040
876230 408061
890031 915704
984700 547828
954746 442399
24825 328191
358291 363030
592617 681829
866001 914943
314046 626191
164276 686951
532198 422823
776264 796050
666825 940134
676571 373756
14828 920488
218673 243644
408897 686775
110152 830045
711708 218827
123614 572404
895818 890971
228917 412728
49945 835349
751829 846177
382566 233422
437677 467739
218606 183704
825778 417874
383071 54294
791379 586841
542636 362918
14695 264463
901229 964445
293811 780844
149228 467533
253172 59762
363532 402588
557148 646240
546859 333346
313031 711914
203933 667366
268534 816792
726705 497591
805690 731736
398593 129379
213308 895195
267958 720454
94426 656917
204191 287966
313774 452888
667054 726852
836003 911360
731273 168966
885251 780858
293028 930770
422605 770911
467340 810618
596823 268360
815177 491894
716583 646306
840409 313360
895971 851348
229083 174434
626818 572572
771876 483211
542049 592242
820670 293972
273618 288601
671314 443257
771125 10609
720981 523132
979308 173464
104035 885251
970528 936040
357987 935535
756521 527386
452790 388367
163992 199206
810764 950271
392929 870996
248178 467698
293063 258364
785638 224015
985467 955335
477272 796040
920611 208116
676337 159187
5048 502184
975272 24973
408014 671624
855429 930264
178590 308616
263343 173501
720530 572286
432877 617017
64334 10232
737026 5075
288808 855451
562187 859968
885622 368229
144475 581811
178502 447757
760431 890521
5332 950416
682441 934924
984525 826507
706506 661464
4368 243910
676864 532706
358146 651145
919593 672232
362607 745556
745867 756197
416781 691052
905953 194675
199629 627239
477195 44784
691203 288980
651516 482683
945578 970088
373842 870536
985250 491767
79333 944743
34319 104306
95202 920723
243802 746450
149160 626981
432196 108825
129492 9528
437997 542324
940117 895587
666279 358077
686847 243803
870040 965317
402534 935082
860495 740927
537232 895461
79438 74786
228645 387945
264236 179464
761340 333469
776126 572220
869305 795763
397783 34308
646827 756834
895777 677080
801286 15132
248491 760599
636914 890197
497452 25410
835286 676029
144534 880464
706847 522485
248705 109261
755394 785314
950182 407883
691751 257958
183833 368142
781454 711276
606808 377701
219311 114698
985325 148743
746512 581957
144302 258297
113886 343382
920171 39741
30134 299343
572468 502825
686831 805153
974678 701078
59446 646455
134361 418272
850494 243676
302566 387991
318091 885837
413007 806443
253121 816521
343834 89086
621649 119589
19597 611269
70323 398722
248867 890355
293597 975672
448071 791035
263966 621705
537510 989626
379122 129043
964980 785600
218699 860536
567090 9619
960704 656717
731629 826050
438883 607302
512150 383346
129561 652001
477911 557264
954793 930986
994996 776185
184258 672145
840244 527332
696099 596861
586785 507646
885448 274512
781012 501824
159169 716805
427606 297879
959922 721240
313382 662417
834871 358274
860358 979627
657227 626505
865678 29485
636735 751438
825503 54911
29387 701584
437279 671318
557170 128902
119160 736229
795610 203996
468442 691475
487220 487877
74998 830922
964961 562990
775615 4986
989406 377683
60397 975338
705968 836027
203285 382699
970221 10272
213826 920331
15265 307970
780304 870455
627055 726329
323299 562171
348808 751719
49720 856593
263472 428173
820759 681295
442036 64315
104803 880119
686715 308404
895381 387350
537135 900898
443430 293060
527967 15416
611695 885884
765965 298139
687048 273639
935789 860536
682286 273052
895739 686368
59475 233756
467770 303735
989866 153919
805985 299151
895508 10313
851199 308466
288447 895629
621947 910114
482623 736330
64502 567632
413541 209290
174966 422968
751491 596054
516595 930316
84375 900155
79275 637047
481313 751379
935476 994410
298713 840385
726002 915041
861384 920504
333255 472389
383294 731140
179352 188973
178527 801093
184046 980614
606959 398136
397451 274303
277884 164780
487732 906029
119624 920112
498092 786546
622193 228654
392772 522681
647393 959834
666645 950298
969839 542308
716193 179241
397933 477772
979986 985189
502964 786142
800734 696299
189124 532718
497555 396986
24390 4857
611885 652048
666074 15488
432966 10174
547170 148764
498093 776514
994476 841088
427529 29567
238911 398468
423306 741779
576439 994566
438236 144632
760908 571765
352721 472136
537749 373309
487521 417723
591557 268291
158494 616609
417165 790695
472661 472165
716318 403432
39802 985620
19629 193547
850569 934146
761864 213805
542949 244394
835961 498190
880585 631230
193815 532244
373091 417720
308807 223825
641731 85005
194377 517221
153439 263027
621216 884940
407730 45068
20260 775808
965156 492785
159533 378007
188782 642029
676242 144727
746319 279505
59209 4504
746629 65112
884986 527272
641580 840547
432713 238880
457238 696241
905530 855080
676846 583024
770855 467620
989491 666862
641964 730973
214021 193878
288424 129825
964763 766191
779829 551905
253899 223669
84319 367895
149567 895807
661487 691378
198651 218580
666684 801219
109691 910532
875764 154008
412827 468279
442453 8528
198510 561767
194046 502289
229023 487680
935012 806240
994875 954947
407887 99195
198375 422971
607499 264282
586841 193936
69146 502841
616057 397754
621855 308965
417843 377697
985230 926031
382616 223927
726258 974990
602460 811065
571823 467621
850016 99289
193836 895673
766410 632703
244040 522427
860125 188790
577400 373245
914649 74693
661806 955521
676358 607397
472730 800415
765612 462415
791419 383037
458208 408358
447729 940531
960303 462541
478147 104449
492738 755779
269180 800085
567155 985002
751861 959726
721345 99723
383301 69996
547138 268640
274037 766223
438002 835472
791406 885288
815865 452215
910401 129725
806367 115168
640916 532683
925933 367392
153708 308592
720909 527315
159613 20385
298555 193843
641869 596870
910214 820625
586964 318340
920002 880486
557632 597111
801784 208160
293391 651491
184019 254019
208608 34794
453220 20728
636920 258858
925399 547482
592635 188914
666500 50164
736456 328275
438483 367535
477199 746411
248081 631475
333142 845482
243958 194203
591893 209123
417833 666327
592346 507806
49236 517332
641954 627590
323166 84108
601445 109058
193873 866983
333098 292702
840845 119575
228972 811164
701250 422481
482313 148514
54784 990725
14766 945552
308647 373207
347415 392503
74289 930848
527485 244524
418076 100000
218578 910170
945191 324062
751000 612146
248848 666783
805744 367691
482708 656791
55077 322780
229292 348029
238657 75113
969920 666221
69573 39948
397973 532354
860087 278422
208800 870659
64651 74480
751335 501785
377707 681870
711882 129291
358282 54706
532000 238227
855460 533057
796292 323521
258150 44794
936124 114171
219294 731858
756646 268719
502268 34840
636635 945053
441942 900300
850835 920627
194062 576867
453172 49024
845474 194024
597182 556584
775850 29907
79622 860333
198740 198588
398455 89858
143903 169554
154549 397930
289354 511998
770411 815863
766304 258378
651115 155157
188557 403130
453788 89656
934612 721513
602167 556908
323390 786001
871248 228509
169691 775828
836306 592495
974475 438720
39798 327809
840285 184082
133959 582444
672466 94572
934262 636386
686226 661067
55282 124602
173953 860972
661778 218727
29626 288745
850339 621752
955261 99269
442825 74774
174329 209107
124336 124819
706696 387513
418272 895104
780798 417522
601703 19546
229255 119600
819776 572031
447768 218295
572381 517054
472189 403185
601402 532317
29890 785464
343122 149668
139045 597196
974840 516912
328249 656825
636475 532988
567075 84249
815971 950386
751614 860319
507387 835460
403010 656370
298630 736675
830500 114646
79360 312921
766431 949820
278119 427648
891382 960235
268004 785748
198916 526996
184563 542632
143997 567027
527274 696270
945640 726245
900237 85005
856191 118939
10034 582421
109502 338026
24928 452380
94316 133515
268363 831601
443234 785296
477413 716739
532640 944995
980412 587177
69946 4504
667027 846287
343741 15075
358039 790957
233934 537029
477481 487600
193673 353240
342817 845298
562018 850506
173933 263595
994924 188483
542156 78885
422756 443181
60723 218605
283901 408566
283750 856404
437963 517314
746159 775735
856523 736004
318602 780784
109436 278250
626888 79815
20057 626702
408234 253698
727236 4718
223859 706463
347622 164148
746889 29127
423054 85156
277815 254246
791220 213581
990130 64194
482301 164185
715845 786404
79548 865857
387925 855901
731812 661879
944514 880657
681473 104342
795344 636652
890713 900530
777055 692072
463164 20281
233584 5489
134706 422156
861152 44559
14643 855274
900329 193411
791108 910597
925167 363173
562032 163405
442795 289059
99362 879769
955178 895406
954283 855591
890702 412738
696380 29739
94885 263023
736407 109461
890718 651635
34519 931086
118903 34699
517719 950333
24778 338018
511859 24828
383669 711603
861131 128645
124913 24245
761044 283412
338273 944731
969059 835914
45743 984885
741130 571852
791303 904712
586390 129447
139256 194313
467335 656465
89984 363095
39723 25007
661309 487504
830875 870243
333382 249018
770945 512755
408871 596722
125179 438243
890049 388420
204107 452710
542356 99616
979772 452385
278248 209183
307569 218304
721312 288492
771147 538018
944728 357979
865037 557516
527474 666608
109329 219475
517143 79158
795944 442240
954856 383896
303900 791289
388075 477519
347919 173580
746747 178201
751563 791683
119598 482643
68977 895793
383044 164138
70259 164120
40377 909944
303980 865592
354058 268355
467333 133732
154068 751071
353289 433200
761901 577074
563260 840689
562815 740747
278745 984844
377586 229797
607379 223324
477717 19334
617372 179532
278829 522592
542214 725977
462065 636542
657100 796131
338243 93656
124401 681949
25223 935307
502385 5063
268106 646926
964497 258462
776511 452946
79853 806438
38822 532921
104913 99676
204303 825960
109458 537538
213541 64042
178821 666305
303785 357910
880200 363218
482761 353176
432775 344056
860424 815276
104030 820986
647032 899980
532620 905529
571570 835954
45720 785267
537535 492102
766057 786041
930045 84472
954304 771491
816351 4919
940758 482018
716413 40224
104101 711592
934910 412480
622598 796534
378214 612259
467809 422778
40148 865650
855610 667189
4291 273722
601854 745986
253643 5660
29523 4917
521796 83844
179249 203412
477368 755912
661969 855784
64614 562022
273045 954897
164265 786477
636815 900342
288851 45232
54316 387582
950461 283140
492107 313729
482441 830720
238610 561814
124502 587723
556352 517127
100026 656805
244969 473564
670708 502436
333832 801091
168717 14935
830203 572241
193692 661868
332446 995172
158475 840260
69388 482447
353043 641586
257955 935751
721718 314264
387912 497519
622242 418369
994868 174027
168829 34838
502463 69773
253700 229202
561530 183857
129149 144874
38786 626875
19808 15331
263697 9680
711459 607003
178863 358165
691846 74540
357919 756321
721398 407926
44867 642415
462418 402526
855670 369250
130091 417254
667294 517845
915263 431981
174237 691249
577218 69535
233546 641324
213561 213409
492302 775433
139373 627129
274176 159780
900417 472427
247487 959594
303389 129754
915188 875843
760987 955144
989439 826058
716593 184087
79256 497945
686759 283300
402781 422160
293214 54443
472049 532042
229179 870410
910723 562469
617381 373607
84361 75125
258561 313199
775782 402777
14547 342747
899945 89851
134245 721601
751826 656682
830443 701446
875695 820944
463151 552497
219880 303864
850993 810816
229027 602410
611456 109437
303068 636367
403660 686509
408514 138729
935799 979556
298020 612832
368114 826020
9532 382685
134662 353113
761208 173472
158729 332862
139399 259122
393160 44565
616826 537387
791573 701170
393469 531622
562107 224255
238546 741207
368806 497505
184301 94680
517379 591819
70146 367967
616804 721383
786881 407277
517138 925323
547265 392588
293353 910226
806493 890429
347814 388263
477660 547517
547804 283032
283574 671843
786023 801344
826000 482279
139023 482004
641708 965490
984256 153823
239062 537266
810599 845864
163479 591322
651624 383332
941107 488291
636594 353613
119250 502365
750852 273170
218848 919988
675822 651998
761287 741502
935172 134174
731616 238574
273668 820765
984974 846051
910020 567740
497440 974860
64171 59710
94867 984290
580773 224245
278673 915833
776288 969661
243386 482348
671573 268509
134354 780721
656454 547549
203335 487619
781301 741076
845682 357687
104180 945803
985807 816112
686832 925063
239046 647475
675851 890873
771615 4823
607414 138876
308600 636519
432483 333020
825201 796450
726762 711496
483095 178935
368037 592307
961361 975151
642570 144142
815798 636592
407524 492392
601581 104452
472732 547209
551806 522436
94559 597064
915648 204077
119476 675983
915204 472510
472636 114937
248774 333777
403440 890074
975496 119680
144552 955540
747132 59722
124347 845772
845430 184252
139667 706576
909775 507419
487721 736073
243757 104236
408898 726729
243541 248937
278220 472578
607137 980381
965655 711193
377968 517758
363228 920694
193820 546903
831718 925084
626566 357359
209118 964966
234133 184137
870275 302766
45306 866004
657010 622953
259165 781261
114389 104509
412735 412911
706070 432515
24598 875602
417880 969480
382972 333812
228580 531961
49823 929725
891172 402917
130213 163539
343973 124317
422727 865643
667226 920431
586752 850673
607221 64836
780903 745720
244184 915141
403210 930391
651409 521686
34932 621976
323427 412580
671690 552189
363058 790790
327937 776188
99374 576738
50036 153853
805856 219204
890373 49122
243396 881143
815529 886251
223914 134770
497746 472330
104444 656613
661557 990285
253419 736342
292888 766388
725629 596378
308349 477564
159401 229009
124939 637231
214413 248976
208456 572611
681146 214043
308199 990484
876184 268540
492434 626828
244015 418234
960614 443191
283550 557688
124389 393048
915464 447544
681196 790966
507512 35164
661556 612306
637034 950303
691901 462359
845393 34300
482205 437782
139476 173925
109186 233630
68823 159531
627413 666988
342878 423468
353304 602461
711085 850703
383010 661104
25549 413199
223292 393078
313082 566365
388581 363139
163888 826085
586718 367966
79326 726353
45619 204541
79648 750674
427519 546653
557658 850504
268368 312960
880561 536658
611549 302882
84985 372914
228282 885267
263593 721382
228773 393188
149597 796975
536627 259933
706601 747015
50044 313248
318151 736558
592390 890410
975216 911284
442698 392585
537412 19783
223288 327768
109165 542129
541607 995014
214267 925417
303416 572701
627023 472298
970225 815938
114086 741506
616834 965709
35072 422847
368525 203822
816124 577298
29878 756352
109328 408022
875164 338481
288350 258528
413356 318601
55716 308226
865625 970243
234049 586286
627003 815722
871338 816267
144347 526896
59131 323092
706606 487617
571799 751175
393060 272841
189344 542402
910418 691471
706819 383560
915328 894832
766668 382534
99076 990278
989917 407750
174582 84338
503283 502156
253796 477068
934730 289019
960394 900681
462653 418192
482947 229314
984918 979714
432518 532176
442641 517798
592331 179223
631503 835785
94148 128911
676592 292955
716784 871250
537355 134649
686582 905488
666451 686298
602037 9848
905865 501983
219054 467772
950071 289103
178817 970174
90024 924870
904624 204237
497462 50043
680391 945105
780893 945544
851027 586936
442604 865174
158756 965054
905397 720514
970501 482769
168815 686991
35302 452765
128976 781329
577568 272983
80012 54233
94540 89692
905506 94856
422481 820715
656501 666270
129023 507112
477172 626365
587001 979953
920588 911089
80117 622114
218599 840827
815399 253405
751487 517152
254052 826018
949875 726051
532362 213452
965315 680637
880210 641821
452670 930351
283508 332919
422850 935491
686274 303797
915462 686273
393041 676762
432738 249096
805525 462665
482486 885251
154265 15247
910261 408297
676459 671398
661815 39921
915140 288605
124358 173703
159601 636844
283364 667035
9270 164305
850392 114709
876287 15069
104448 63988
731165 869968
800722 347978
980084 661495
795884 462650
477009 412453
790816 443123
886055 372737
328730 24476
661090 462928
964736 204053
592345 44627
681543 964267
980199 557960
965227 29867
248942 89180
672086 55487
865623 890624
168876 353119
253381 671584
413245 388729
637173 587286
581482 139310
89943 248378
213335 218876
751471 54942
123884 885091
612420 990709
526971 631460
909931 845379
228743 243614
407997 318208
402885 258554
163973 387834
870216 775892
835832 382606
134051 821507
433325 695937
448052 114474
457244 547954
915418 20089
900535 344327
188923 671532
656728 562177
428082 248530
835060 612246
34559 75528
860879 970362
242931 100165
915435 15087
299365 129243
915440 413248
826098 632720
895635 344391
199232 716056
512731 372646
895477 651725
780950 168826
916003 532087
422366 238175
277818 497368
343403 974659
189596 871725
10332 44924
745931 84781
488150 721406
994207 60112
676250 134684
885852 761668
985289 234108
9993 129028
79219 99636
974819 368609
507967 134893
557017 139724
492144 408324
84571 43748
542024 512846
974651 945850
507501 691818
542478 884853
984726 164793
317993 915510
835459 752128
303629 800817
318354 70786
970178 586557
945635 353765
75683 616880
328439 586888
741660 124598
562190 552666
721419 198809
238700 218348
9376 179262
681073 551810
795471 845910
249514 804886
372635 860861
571616 129499
747295 601405
79105 64681
34282 701881
4829 353825
740986 4095
880717 477227
711178 49638
537507 358115
323783 940558
404190 218286
418034 323652
836532 129788
970284 64470
263865 771204
34722 407882
537994 124505
437334 621077
273853 35678
79965 701446
800782 393029
975164 894798
348623 776059
756953 687076
10157 433455
771399 308718
974911 796867
522323 627338
512526 79580
950986 139028
457284 388302
641506 552178
25325 457269
532199 64370
169325 298360
751079 671781
771537 298213
980437 696378
160431 373398
44447 994879
611781 373253
671720 676933
388294 502270
298382 163552
875714 412823
64069 656415
651751 24876
990361 388355
567228 38864
905615 646754
278411 955505
681730 98968
75001 626542
507149 831093
164020 637157
253882 413384
452935 343312
557339 513170
785354 199391
433313 950390
264326 516361
338829 805251
582344 994924
886167 671529
253379 173857
333308 408249
503362 646382
219954 602096
830503 691220
288436 641320
64939 800166
168669 746329
512620 368360
666884 343352
467102 44899
104002 343399
726034 219447
925979 49913
532665 447745
701819 114180
213206 74291
283151 532556
487517 776250
219606 526940
477881 149260
710844 124301
959622 388418
840714 99619
940541 881139
458179 900563
109778 790623
457600 591713
675748 140341
74365 238933
900524 487295
457629 214185
282888 945071
606870 955076
299329 542147
989872 169164
59562 601750
880139 582784
825507 547927
70274 854614
417652 118949
517679 213435
89798 104774
716620 294331
164182 263228
621482 462331
701347 476975
869814 253662
452429 831043
950561 676169
397576 736101
745862 696467
323552 303262
741265 616714
442716 870353
363060 990083
383158 213965
925179 348346
527673 940848
875781 785760
791725 432253
452461 795828
715652 860392
209199 632483
353819 552151
378302 811586
448579 312579
89912 850764
4368 736754
587023 611810
850995 606510
542206 865970
194716 69710
876484 353713
408314 338071
551568 880239
661634 601825
557604 507041
74867 43933
487716 791122
662015 19981
248720 413182
572265 337971
487397 337841
447597 726577
253474 298014
696499 319292
214146 204222
517272 581999
801640 288379
512224 874927
79398 163790
308782 302823
219101 397493
816041 218363
54190 667044
492401 358737
219325 577454
442850 741286
900742 478135
954441 477689
726195 736747
402662 193857
467195 672232
209742 462885
154361 904366
920494 627737
243211 731307
681997 841300
462914 203574
701444 502340
422735 736229
850678 426657
671632 333420
916083 691378
79276 810083
448209 915399
278592 756177
268547 4311
761407 855745
606553 15691
109367 309065
781162 586189
348535 294044
183932 532644
467046 596857
637369 39449
49664 636848
551698 955017
795940 562537
65003 711326
661943 273220
188737 905774
302808 367976
392830 383604
661734 666717
517410 741002
995300 985237
726367 473402
134491 760787
950020 835755
790695 830666
322548 735946
173643 845516
29253 109177
303788 701982
586859 184149
288438 503362
765837 292987
875593 731726
895283 213861
463182 756165
970172 284664
856111 10094
835330 770939
776298 493548
686123 775410
795747 288251
313474 930412
487621 745797
706344 681469
432692 203154
686866 974901
10191 586790
403237 472535
477584 506529
716496 328168
657499 293482
298540 547662
353161 154189
492402 641241
771102 64705
328433 423315
895491 626712
532632 472781
521815 393133
995561 10048
398734 44781
304325 950760
403587 284689
408135 577375
5556 895330
751693 980367
437079 731016
905146 164231
179261 473294
408159 54238
323855 656887
995319 119777
233964 173885
512027 622466
432793 144324
588490 536664
393110 328621
343245 264121
198796 483421
865293 686042
337990 731547
233898 816099
930592 785693
567299 4868
124026 959959
507700 516994
248757 462925
293024 536654
248365 249102
407848 989613
482692 25271
75206 915435
611686 621945
850646 218657
323022 920194
233605 622475
845569 810678
243368 442756
816408 711384
865411 930483
273920 29201
696151 502663
323544 826051
448431 4224
552540 656332
795684 781100
676912 895446
54709 975417
44638 905257
874934 885519
213987 154338
248893 417406
173966 402882
243821 865906
512420 920391
949945 730860
333655 244059
638007 861058
324378 612086
74492 408104
149241 367840
965317 462591
18922 397711
979805 487676
537695 945606
313480 129587
950696 452663
328555 258827
616333 268884
671989 820473
815078 587816
124213 59566
776129 482532
268589 333353
184405 856191
601752 382764
442138 353150
109943 552318
25072 402962
69402 512410
830788 407773
750375 820857
965256 984834
466702 387621
582019 736402
701368 895456
721391 706886
69787 730864
472851 178941
224068 313545
960938 831397
333177 437948
900281 920347
257953 188613
806418 477314
686639 268902
368854 253915
447486 89689
482563 855806
965186 875467
203888 149413
826028 567040
30068 482319
124589 447119
134320 985665
388341 885152
915119 521802
965117 467141
721685 616973
980385 607107
901365 994612
840082 577214
229000 751410
592105 795924
233603 144640
338596 59383
10369 989849
193964 760411
113712 208420
69441 791098
50475 472873
732192 373393
836180 661145
622200 149576
900510 64827
388188 357874
183738 358122
965363 697132
905968 835807
183834 422034
313252 990015
895837 879750
497366 581858
392824 985353
681898 358208
258296 159619
93974 651876
637468 382417
168479 984475
154721 492919
392424 706659
756350 616929
795145 268363
651382 850701
964472 671099
457932 512615
731786 398500
492450 154918
721379 562786
298035 766581
120550 562802
84577 895361
298648 950783
347989 870999
875965 726479
542200 50497
616561 50015
174757 979825
332884 696366
641479 109534
491807 975168
462834 238888
597397 233238
358413 178940
238744 427456
940279 502386
855590 955784
591787 224458
795733 338073
945193 910011
124603 975141
572704 765611
652030 149322
323261 745275
672143 382460
800921 895674
20375 118922
25193 692897
840345 412738
691515 223688
821039 458383
850788 168964
711624 200008
726399 865855
288315 219276
576687 945840
840621 547171
228307 795590
55322 392444
423132 298488
49872 657143
243623 810656
118995 432608
785780 129730
591059 174553
403039 95246
736406 746019
636346 735793
577255 203639
950615 667469
681534 452572
975517 258718
805961 870067
253470 198832
278902 467265
338192 89950
765941 870407
725584 163899
756106 721206
278557 333518
582014 119245
955033 910116
169187 637237
38637 417841
94898 537223
60156 278864
830798 989757
218817 552015
632061 970398
128957 706246
64884 935757
572395 582318
566869 666684
164400 775734
427642 496952
925923 29914
174164 203958
224198 801255
706754 208983
507394 324109
422815 94883
238633 502643
358556 486563
995653 881201
556784 204110
899720 447773
850142 55544
467460 651728
367732 348509
263788 815399
850357 915696
234181 686091
397766 776423
183892 347951
179380 935377
522169 855372
765981 213426
85022 388029
163914 268525
194562 427463
835901 403225
815606 916108
940588 562591
542151 89158
408037 975212
173970 761061
696479 617200
332949 273959
283606 591878
960060 258842
25026 512210
293872 15136
836301 457192
318091 108871
781045 29377
860702 70404
69949 651610
552522 706941
975555 741404
229666 343202
811676 563042
969804 447893
830302 750758
542601 686497
118974 751543
552387 398639
606908 338098
89600 881122
432740 463232
218751 144231
845362 224225
700993 214177
338031 5422
746334 50067
890926 417822
318245 816017
134179 208805
647115 636608
810749 438441
39260 587022
209603 338315
815959 681325
193773 771131
890743 124904
208969 129932
173386 667210
4415 427697
79797 85486
129030 736483
929906 268473
547263 427668
716238 820970
661133 820894
9379 949607
368447 9946
885311 109222
582245 567038
173873 15061
546853 318369
293282 815981
671809 970216
910022 785636
194251 955225
238645 706648
392727 825944
94453 228983
9624 507337
402679 431971
119245 362900
652083 14932
199486 935341
298141 223870
238237 164155
193796 755879
54724 890535
741309 900248
458411 15127
232977 233656
507524 308500
592895 840150
921087 825648
244181 581991
59257 313180
487459 258934
875437 542229
642407 835691
19951 437659
874753 577041
317925 94639
333740 816629
338281 606720
746410 333403
219466 283461
512363 214477
5231 184802
851137 129341
258254 134846
358488 203937
452605 582449
671838 591627
521977 725613
681788 179149
785872 891378
830777 855827
412687 418103
427661 551804
776081 159044
163831 602245
428294 785996
417373 473182
243957 716382
547858 289467
433051 368732
840275 736395
936074 29542
307915 626885
428104 810370
860421 621704
965164 19325
9456 481800
74484 666753
870416 577554
45112 970746
791250 333791
417382 19975
44747 124251
592484 811089
597118 960228
611292 79529
327635 915862
911116 745973
5310 39561
855976 153883
238173 348175
507607 233678
657140 323234
348426 959952
134539 522045
546764 945597
213723 975581
154731 791452
279605 606792
94275 169257
129551 761299
820924 890378
492315 800319
965393 507666
84114 607423
50339 388346
89440 149166
512794 482708
45203 412089
323413 329163
676734 587289
706778 517000
447641 174861
676300 352782
149615 581348
647155 139306
283777 850701
581845 915614
228327 980553
994441 179143
60025 995509
855802 686620
169155 861094
890164 238846
935233 771013
935256 875603
696639 875589
841258 975109
88829 35073
273145 557262
886034 218572
10073 517657
228644 14333
327785 199237
432335 228821
990409 910740
418307 462920
473465 492405
198582 452364
706103 979959
502896 691222
482118 358801
412789 497488
646988 855735
860802 780727
89834 204217
970463 547124
129528 551858
567441 830425
516551 448006
601980 248423
244013 756384
228253 606709
263570 189080
900600 173845
875357 975368
168915 233906
641649 507574
89756 950200
507171 801100
920192 79322
681815 64798
49571 621407
253409 577017
736811 238233
576256 920241
810079 711555
253468 104188
94794 513041
412314 930146
855499 124263
387536 238987
740703 577257
626889 895987
805821 223623
492449 204810
577612 393623
546692 139350
736161 193690
164779 393435
786169 418196
104332 487065
916473 328321
392933 990239
259475 696928
278710 120043
358583 765998
950697 258152
144202 765380
412932 502704
527516 194016
457814 825859
830487 746233
965329 755863
348461 900167
985634 109035
288422 751596
288841 517305
985096 950939
287563 139881
358212 254174
516795 881260
94444 532497
119859 313637
328043 373001
103929 278743
487223 537030
328059 696553
25133 467528
855330 910974
134303 542365
289251 462103
507323 243204
29627 323678
443306 423030
233885 860483
995195 800966
19978 60065
114181 806049
273196 109460
89493 532126
497474 960196
109724 348366
367720 293512
512098 144688
895613 766781
154224 935062
417493 497622
910066 383473
636638 253507
342728 234616
721544 537118
965187 9663
899904 34738
214251 905337
523063 960188
288538 791801
482785 572419
796798 735674
85074 786707
771082 875113
666610 313342
900209 681958
910859 905259
428011 482325
905185 144395
642223 567373
19673 353106
332999 915513
741350 657264
556713 855630
651940 866127
95197 29832
398134 905629
452756 627336
209149 352857
856014 691580
994560 532086
905393 357648
800891 577030
860454 885026
263052 577095
248640 825187
691624 387303
507540 711273
731443 730960
975311 303410
805553 945060
289056 248643
492008 368904
965456 552089
487812 179032
796430 786351
556569 16112
900812 975264
30361 606543
238663 372754
44493 219196
726873 169682
880862 750957
153863 333322
423178 696494
14727 880816
277942 681174
417644 621490
835719 25414
831248 129545
59326 19633
935238 493003
721933 403034
990181 795970
501933 154415
64842 905357
393397 696717
791107 826272
676996 428045
531609 437478
214170 433273
244127 964576
372493 20262
512210 243668
856144 199082
910661 179152
895705 299102
134563 870941
413201 304018
10267 108743
432551 825508
527434 850073
219076 746625
930643 940091
776281 239322
965196 716911
562607 274228
582469 571849
864818 303686
428460 84700
64395 805708
49929 59986
751312 532602
875528 835814
864966 646767
805623 532228
54599 985192
258561 502466
856187 104429
189318 592641
233671 706740
233831 124292
636657 368544
14800 113909
975288 705568
741190 402294
577016 34158
149004 681217
576887 397546
691832 492852
144527 95184
935211 278404
204103 159196
865574 691689
661442 159217
681538 909963
780937 810506
681657 413077
766052 607357
178857 781523
173907 726264
89474 736785
880614 766397
875400 417346
339011 522128
322583 790384
597188 542039
24865 994570
995055 84584
611027 39063
935527 283454
735877 14633
687242 204168
741744 313621
706731 581943
730822 174641
74267 736177
194058 194101
871153 368054
979294 314028
836931 512569
472059 955332
248507 208970
139614 816344
835823 646828
45067 283283
885492 626808
243244 188855
278210 676544
378145 746506
35145 239377
532828 262838
646233 383501
377402 974545
208121 760978
508068 472352
497197 592934
219164 870917
134292 507310
726392 124398
622131 267714
631898 830689
810480 536881
248715 810893
547199 368922
373301 801141
442228 104309
581900 343980
597179 592062
367700 363264
801523 148776
646245 164118
725990 110013
835694 332379
602022 954679
985165 34529
940186 298844
174469 596286
208448 781226
74449 507319
169221 363614
88831 587170
269150 890486
985266 657171
264283 234339
885651 138561
45017 627173
492575 760730
283375 99161
517505 99785
264033 153830
408950 612376
472622 169825
79719 49937
343573 721293
900783 522979
512372 278590
527340 452989
850845 562288
368126 676765
432700 89854
402955 631747
890697 244197
258805 890387
577494 159472
299029 263785
443006 322778
124452 532210
89720 571409
536674 502367
367603 458070
478240 970278
134224 791206
94505 209021
303490 377454
781132 522271
527434 139515
750996 631923
158961 591670
627312 219033
333262 890506
492560 651657
493628 611145
258898 686651
542193 775717
273950 710925
870663 388150
870287 299032
382823 348898
736508 761041
681942 756652
427391 581928
721521 651800
586873 417587
492336 452929
646957 870038
278329 14891
482911 497151
711655 726512
642364 14813
552844 477406
591631 925199
646577 751031
88974 815927
850587 422192
368184 478155
811632 392873
517317 178978
621960 492109
258467 547437
980687 298749
452307 258892
224109 850129
367834 133264
522133 601757
945068 626761
298513 353124
745693 99643
64699 149634
477304 955427
278928 736361
217809 402869
854973 423052
751135 740997
865396 428893
537185 661233
223598 870284
885281 114568
432345 721191
811430 154399
289224 333418
542013 751895
945471 546738
726772 671495
417343 636897
995132 771150
790916 657186
64690 944684
761453 776155
637429 278604
910024 875313
89080 94570
129633 34505
866190 597040
994664 114446
268963 138276
493246 278163
901091 746903
339002 711259
407696 507114
442332 274767
950064 94638
836224 159418
811033 642303
531983 527037
35107 994946
362906 185056
825823 99571
15059 109699
104123 80003
924685 412963
975254 791621
576647 423301
566956 308707
840988 934479
95059 154590
418819 707227
511935 337907
561884 547540
661750 865407
54833 791376
273336 736425
994917 209180
124599 332230
691172 273465
89899 382657
751769 343491
785915 910401
880483 925725
790344 353245
54239 526923
806192 179411
407897 348365
382692 338500
183476 273418
238958 756086
611944 571582
178524 338003
352778 254027
158687 547604
587199 935561
149321 456893
886175 308625
302799 472098
487379 119269
209050 622380
223563 138983
562256 318803
741398 805612
910306 164726
402855 537133
930231 373046
557128 20137
657443 4192
939331 258594
806238 687101
830841 303033
547455 313638
920613 601553
606272 412663
641567 298230
103913 850300
233428 388134
870279 945080
770995 462664
253367 746305
292546 482149
606378 950607
523039 223849
363692 99568
438259 69596
457826 686811
313245 557841
204044 989810
423205 65135
830939 940614
393114 581836
383019 930255
452380 292840
298251 700935
855813 438530
288519 447627
697116 686291
289203 347859
656909 800785
159453 402824
408400 168764
164447 656806
786202 214463
482872 288543
422653 139202
383046 397984
463172 129804
800733 611326
522604 905341
269142 821266
69988 995092
143919 746182
790958 776193
930510 996260
661159 234757
397939 169073
681446 229226
706617 871154
965260 970023
507407 612558
885004 786408
154067 353282
398101 975435
974839 751102
655914 477338
457599 964882
109626 93918
234044 159092
934383 169437
55113 730840
313175 273787
886004 19465
834964 218079
716914 915722
661942 721371
766345 84066
138830 203711
776016 806243
860838 452305
229885 239579
746301 377810
263518 562456
432666 939817
84765 989321
278872 477418
129585 481887
358619 542909
590814 254023
582155 363982
661848 283676
637150 746403
810454 412959
602097 113501
960038 139703
268673 960375
512986 860503
627183 960795
407702 676798
805343 920463
218785 159538
39451 812055
64847 960014
850467 34000
741824 875352
547312 850663
741328 184265
790598 576987
964644 606185
283547 625766
671960 881188
701336 322815
403293 985020
448334 248423
915575 233189
735987 730931
895680 516864
985102 671679
363557 60060
74634 129136
646467 258463
517517 68939
258815 452160
408002 263372
532451 547230
502704 572238
124750 835562
39731 248440
398576 407835
914889 880952
463266 840537
238706 701536
965106 666260
159536 193983
566677 890301
835956 557359
860645 821469
487742 606959
204129 980001
69495 591655
636634 114479
586838 566994
239066 258448
437848 198385
74538 114413
69652 34529
134077 939994
701638 855702
910373 736611
283599 547359
5140 124851
398193 627350
323100 19558
830110 169616
338349 995233
875693 636683
433192 895700
45453 810786
363911 557505
792079 19925
507807 461939
409260 910485
676478 751012
328786 104321
153960 725899
742089 228896
312992 889830
233095 995530
248668 875467
567192 811101
736416 213398
84550 39783
372416 641849
124487 69351
313046 229734
662269 747133
174730 288429
139378 223858
224075 119997
736231 263247
388042 104275
881043 910346
119375 805835
855196 363173
720952 40252
188882 413673
378038 482156
910380 209419
795898 69383
945586 945294
451868 85001
263711 871111
94549 457729
577195 592079
353637 835621
511959 745937
69494 567549
130030 303614
15433 795840
825632 59939
39783 527171
149436 214176
541770 272913
616210 223823
313150 905450
373860 10132
851506 74776
622428 984100
726481 806048
263955 695828
24731 910192
214157 730550
214016 846048
49848 303175
815694 880703
561886 771509
303893 234158
930822 875303
134865 398747
472224 482847
587024 631938
313153 233654
208849 383466
253882 323468
402391 691533
855997 581537
283333 347657
531932 94501
14977 45629
238783 293630
482910 816277
298325 706873
358504 949874
860388 662173
801875 811194
497833 691080
44229 4381
98823 696537
626399 910473
213195 99167
785625 268631
950228 761318
781151 5390
985202 522807
59765 363159
247767 785539
104728 358212
935637 960181
343212 919998
865840 19252
383172 880533
995518 974891
422961 471852
343156 373378
920202 612427
652266 44554
308266 506873
189668 776018
442985 432789
851419 705990
89235 706882
730737 437056
29677 268715
895378 730339
765512 352765
572868 422601
342861 696146
900915 189028
462735 775998
497032 964958
482444 9346
44941 74082
403242 780920
428140 308400
144102 254014
393566 820709
994628 184590
513121 580692
830181 392896
661253 909870
124605 223610
596697 357429
487295 960626
373637 288634
796269 438377
213690 612237
761182 179066
909415 970580
30148 562025
492121 15313
423717 288013
731134 521843
487725 109693
492585 606962
473181 692188
930121 845094
929800 527120
387672 74586
915116 597623
64631 78202
543135 850687
906450 587075
940393 766037
815738 517197
527564 35211
348286 741551
826192 954728
457563 492372
771794 438045
347961 199157
726218 686338
402375 607195
392475 721868
213791 950063
69188 184198
979813 447992
895730 184015
497730 466848
502731 338560
373441 267910
124867 89050
423420 542279
915523 293522
322649 496966
994962 964522
59424 637375
755733 915741
163903 522190
647323 218965
238622 626544
591913 672074
119267 537334
631433 412784
378036 148612
138825 253306
461963 481934
303097 582486
139033 840833
979557 647236
204203 765916
731229 950423
502386 969563
204295 119535
820682 860578
607342 437692
377940 616990
393017 128379
50061 144170
437339 224533
661886 427555
542183 317886
930565 123815
770848 587795
338492 408340
696232 287958
860025 497939
736213 363528
980012 632007
492038 54806
516724 656020
213669 880542
637168 263995
925677 955236
24528 248452
457334 193948
154516 800879
601764 870573
761374 89386
909950 398316
392878 712037
776462 606507
20432 168760
477616 347739
169341 342784
383355 303917
572697 542278
243880 895300
641955 960085
606606 771112
701475 4283
745893 761393
84067 815815
911134 586876
562242 367986
20263 184357
418109 756520
453146 861439
831611 945048
184105 442517
915847 506697
377100 472121
174128 432355
850632 20155
362911 288476
468185 725822
59567 537153
298703 741271
303003 587186
74145 318478
706426 900532
746841 751348
120285 925275
870600 720990
507035 457495
884819 755940
567404 825725
661584 766567
398154 144886
327924 742119
55332 203835
268689 995580
134195 99340
159349 467466
537990 367448
646859 35272
741854 905323
502279 209251
283139 601880
333228 731268
263073 314133
631439 69954
825483 611579
487803 272971
313206 472971
288988 488069
426852 881018
791214 821875
318523 34572
367468 343227
94563 691558
209282 233968
164902 278395
845672 403255
497550 213523
65023 596957
850970 204140
994835 34267
452801 557264
618062 437442
273821 971019
905782 74533
398265 462106
667336 586801
731063 422342
587448 35232
248694 244305
830649 891231
293286 283239
631516 766498
517712 204250
278377 945321
5165 561820
333186 591726
696590 865681
701396 253633
950499 333488
806743 59708
453973 442793
900700 772005
955841 871283
965098 994731
79849 517355
45461 104497
651390 248642
248446 44642
452619 855395
895922 801538
716221 796019
756585 383544
880911 830647
581848 885726
243929 527016
20652 19702
85210 105296
133920 636805
328807 572651
248043 64488
69683 318220
979992 796247
806304 343392
830957 742251
149408 164467
49897 264163
452680 268953
10068 796503
696279 5521
169551 532324
277913 959766
726823 258206
567082 711282
895712 592657
989844 959497
671409 765765
457849 293275
189391 706271
900493 850995
144146 114238
954550 124786
820701 398117
446921 383525
700658 805927
636853 219315
289127 184283
462270 860998
219082 706343
636337 94353
353379 736080
721302 229324
79856 109398
612425 900302
278403 731755
716449 343270
890343 5306
29494 959465
482628 343200
865796 791533
59729 437067
433113 800954
979880 482519
526600 577167
915817 129709
959896 557542
114579 198764
123988 204579
945129 959906
213694 407577
462841 29615
164212 965604
193992 815661
835563 562270
274303 551682
507686 945409
840837 592064
39820 661406
696278 497275
671557 283333
214218 223839
542300 25527
423288 547616
646523 412426
956121 592171
159958 770467
646802 44701
950007 278839
238926 269020
517388 502094
547230 984944
347699 647415
672195 816178
701842 925342
885612 969338
59861 208946
855733 970162
552134 944725
915491 492746
786531 243720
218497 203554
223443 149026
935588 457788
875107 423619
627219 915090
79080 512561
810954 497269
288401 397649
497011 969666
522974 373921
144262 726493
109594 880321
397813 263560
74521 682637
567159 234335
935753 233415
497281 875549
14516 552076
397898 606480
815738 507076
900383 721399
9873 428295
114519 587608
547722 457155
592185 462656
69375 826217
373206 681618
891431 69512
671870 467176
796775 656388
378316 423009
482848 422933
592003 636631
293557 980300
188475 760846
39347 323415
740891 178969
74612 890345
298602 880216
889711 313230
254064 447662
576824 631266
522780 482323
14418 49062
611777 89960
541723 507766
576664 457452
924886 169493
607237 711266
497168 821241
383172 726440
532139 382959
472559 591682
835928 179035
945396 567596
228983 248441
462540 14729
712042 965947
720801 278557
591765 303350
118547 288460
258434 223574
298533 467345
646157 203766
507221 288749
855282 313835
612565 682418
9560 219251
248631 423298
143456 919987
721296 442431
432964 597196
949672 208650
537374 223987
154019 656484
920713 203132
800513 407417
124320 492209
975012 671786
149348 751446
75298 249545
308132 597373
163965 168548
114267 243304
358365 64519
711462 114260
537266 935416
686830 606668
89371 423109
552747 134789
562129 35449
19920 641589
909958 720719
696939 159270
646340 880010
388335 213857
577076 303235
417833 467601
775745 114176
189293 621595
174387 582292
502567 492977
307970 825803
417151 646210
268540 193604
253962 522140
919519 218616
49380 566789
676703 637008
696468 552104
412841 248731
854723 139777
402215 104636
651486 353006
676814 55275
527598 164980
755889 876427
955607 208700
970164 233708
616470 666906
367929 910893
95149 955363
830353 820850
273870 333408
123782 965217
926045 920291
5885 806446
975386 775652
193417 482371
856033 497082
20199 223533
89251 810808
934696 526933
178970 367859
457875 10834
546985 502200
219133 69138
129611 267826
263944 616687
487154 731486
283654 776449
715704 900346
552254 452975
408162 228469
939711 368243
372970 5241
327650 457430
149557 169379
313219 239224
447908 69186
593042 348167
140223 834908
641920 243784
253810 452431
695765 726429
457141 836236
596949 775735
129541 338557
915560 849993
959890 513077
89747 268635
25247 39913
323724 980255
368040 900648
244153 652065
542260 259242
99261 268223
288635 975581
810834 840649
234026 582191
970535 104691
567281 50451
393836 652102
611902 98951
119687 219588
408161 731079
810800 870816
104374 229205
24647 218409
412703 730934
263756 920079
716409 791085
507834 860798
243663 726452
631623 199169
786178 850560
293397 811278
119573 780720
955457 144158
691576 880489
527664 984952
915224 418057
661816 178800
104667 706115
193570 397448
586899 283004
208518 158487
870439 179510
402915 482626
25445 79791
328633 895761
954861 168880
298558 178991
119241 985574
447852 358406
20294 666664
228916 950369
561555 503227
527623 358503
870240 750294
587658 542118
452320 377912
805462 352565
915048 159145
531434 870434
507214 816047
323214 671600
940247 234106
706602 914860
432420 149387
582150 716355
746210 5001
572735 377779
258373 492303
796652 706171
652191 397783
377806 935599
826168 437680
885228 601620
159744 353557
951061 561637
392939 621627
950077 820794
448641 133892
721372 244658
44634 885608
94342 95700
348212 716270
726734 796324
582523 989472
308881 358126
278656 974775
322763 372991
313502 751361
930590 820694
40261 463182
39748 313146
109668 382267
706354 969891
710919 691577
447228 716408
432553 740926
338424 800984
775867 706105
303714 10810
477576 965567
109754 467577
616878 512386
835612 84527
174433 353363
347400 129103
920716 567443
915046 466617
338257 477718
721758 209206
791755 954980
363368 169218
631158 995307
880149 985327
253436 283482
526734 119737
637165 811342
622276 517886
398828 661758
437770 846098
327595 900831
54711 224058
581697 319204
353516 183881
54808 497748
398356 497127
586918 706427
324134 268581
795162 358034
970047 556699
403374 327695
975585 959727
656757 646995
69950 597298
750900 30252
428415 348197
183823 289086
666743 387412
865518 218621
766525 830515
825805 69975
641403 890194
894879 99405
492513 985677
208298 199012
90022 29553
333226 507483
501821 721472
861071 606991
925613 342719
865906 402967
324008 676722
636919 313868
164469 791530
771409 159146
676633 656642
451719 661957
84799 870608
258134 407935
711853 557609
705670 801203
826074 163493
606427 467387
547079 676212
661758 392396
223769 293162
402847 413229
314171 199256
268556 258847
905353 487391
851200 686461
765485 980388
691210 536932
950302 642102
517141 109519
622016 337740
925548 730887
657042 612610
776744 820609
571295 283400
750928 377627
536443 820788
458356 347815
651327 940641
472718 184375
726250 198192
50282 382484
467346 487145
278096 417069
392636 388625
870620 273382
199602 412775
870679 701834
796186 621863
925664 396834
268777 965382
696395 84736
472385 414030
791004 239304
690812 94021
597349 686967
995409 347797
223629 153647
153626 806159
771773 895219
731665 159396
701238 950769
592063 557149
163732 662483
517335 536875
880484 815291
576517 845629
656944 955300
631795 183365
547738 134275
10406 612404
746105 40137
398302 114520
100087 497822
796326 805610
930573 492617
681719 816595
174139 899893
790996 114828
592238 184370
860858 507919
154467 706395
562452 562981
249208 906170
109842 989537
229066 139652
666499 830891
324107 874821
348964 702047
740823 144050
711185 368179
268378 75302
467389 228397
243820 945037
322985 870449
601917 44218
507870 821389
487558 64183
253658 561867
940438 193687
49578 25459
104934 199447
149869 398100
342238 113604
518112 826063
487821 328169
84183 915692
378622 159055
955239 661554
915326 9852
124599 686623
965092 497157
786522 721368
781470 198926
243097 328704
696646 532999
660970 363512
581318 407600
642245 372657
139349 407856
313517 417699
900555 357945
65283 38783
486926 920599
104974 790911
636282 592126
900190 696705
601666 407932
616701 985424
418141 388624
561875 721726
74136 601858
204163 124481
980052 99630
716025 84336
666537 547454
462511 353215
477391 641686
656398 935499
736602 671936
746432 497475
153616 915761
884660 458056
707473 666565
701394 120154
54551 806338
736774 139356
671658 427518
268087 209442
283693 20353
870553 914869
64127 244104
945611 139307
134986 308099
760610 905337
701528 318115
44630 935491
875721 891240
188546 158831
697112 328585
517858 10444
607558 626879
204362 243931
123654 905348
631257 467717
557178 651374
178696 423133
159382 900596
54676 547889
687091 995070
946074 532360
348200 148809
402683 353004
786242 856097
607282 547255
631276 632354
721233 362666
249170 313383
732139 592144
238757 731316
869897 621532
482914 308374
73831 955175
726966 288671
468103 35089
297857 860403
512210 209494
418052 268554
243604 288791
532326 163613
487433 815764
741220 13904
298468 870911
770924 771508
994398 681819
930358 517015
815702 89860
428155 926147
412885 855688
512351 443004
577328 44603
567074 522234
607231 891393
801413 642159
765764 144617
801005 427545
885140 596512
259507 253763
352997 536595
686553 174096
840694 323038
622047 298300
238297 716206
660928 25373
134382 174404
870558 19887
875478 934930
368408 840858
164292 149340
816427 9739
582723 546764
472126 541846
109229 770854
487207 378310
174100 542131
209254 457534
428211 627173
373024 646534
950537 353047
258540 388468
547651 979980
198884 457638
646192 347591
438468 363417
308332 44647
676973 288512
482554 462649
935387 596798
875534 736010
786085 741143
377912 59833
239250 881717
258736 233616
69695 666310
920822 104434
492369 457835
383835 636410
9525 567754
199248 288450
950278 178055
637119 208821
975081 622270
403075 238173
343238 403692
676743 622236
343203 308338
49672 487701
900239 308685
353511 5170
840684 14730
203853 740823
636742 34452
443129 825629
432802 736367
656875 95035
831435 905369
492695 104011
819867 612108
855980 233126
646941 352769
412557 786275
541550 323648
572094 462490
656376 587057
214410 103828
785887 342782
641206 925277
850944 905164
556506 995114
790531 746333
626915 447082
900827 984767
736234 721596
89338 99501
864993 582165
592589 332819
223214 348505
785879 751183
272742 25004
269125 432388
79529 537302
19695 39462
407484 894788
935616 626775
34120 516710
388091 611337
402727 278171
362709 198343
189187 711092
453120 44404
636604 388438
523250 457449
681649 641736
880656 442980
502740 567080
109755 402562
158537 531898
482727 482454
865352 821145
572020 805919
70536 472627
234067 542690
497544 159488
39542 636346
124124 442560
631691 25354
711260 428069
865686 149829
362720 243414
691684 850443
159391 313715
611651 955289
705996 323675
646397 288216
422532 4870
39594 393699
612671 208217
611970 771097
662049 29854
433063 253587
418159 547782
432735 955734
800808 537026
144544 238665
557518 412434
15500 876245
925160 855797
711361 975075
442721 213809
929576 507812
899883 656966
437422 741399
289130 29555
557000 278016
652258 312744
636476 646644
313071 731621
55045 64882
482337 392391
214310 79738
79234 561965
900679 412475
343618 452501
657003 994808
786606 661139
24926 895583
436847 785736
736173 939816
89591 74183
153502 343546
283267 50447
89433 556973
15829 532328
970321 646956
706708 393305
606924 641660
448771 562436
507442 448025
328740 363186
99796 243680
408873 437049
771748 791071
178736 855225
109013 214161
552473 671699
273839 656290
492740 601555
641290 735401
890405 169266
810536 75039
313524 915237
477529 293967
627309 59120
632364 194134
800682 751296
974919 328691
820860 954762
482620 622011
54896 462913
930185 562631
104657 522294
880545 129291
920427 831037
989661 313045
611899 143710
134008 69326
700955 875534
60207 567225
686164 368417
950124 985275
651893 178716
969757 612128
432943 74705
477150 875566
497158 382799
39974 840984
890113 109502
946065 940452
358081 477533
821165 597162
472093 781509
980311 701022
313231 467332
990002 586924
487537 551885
815446 856245
353388 755437
110185 711867
373127 567341
815717 656755
50231 139333
263835 502290
806761 706940
433242 925899
383428 407629
537035 303377
567448 298330
472870 44846
870318 507394
815826 134792
44261 522188
532506 377918
427777 239179
387333 904799
766398 273564
293203 308872
835434 626107
114384 84639
622299 115081
924734 915152
388627 243862
677236 223959
740935 303582
547149 950080
646122 184070
483033 128567
850885 975260
194014 164053
407802 477553
881101 939899
323216 334153
168844 39992
611534 910496
34648 815998
751478 666791
521911 109117
556774 174247
969053 372974
686393 387954
144449 512158
711382 716342
885621 905543
632295 557591
74681 546644
611711 94265
900661 910278
980272 128768
552274 930453
731364 412117
462338 855527
44723 194415
328276 114898
213492 129110
273900 123756
636718 418670
696603 333568
4984 168952
745744 576764
766456 253774
278475 582319
79016 935377
14727 686255
33873 656873
944895 243745
174212 298011
592450 313924
671754 343826
69555 756108
239386 955527
19214 835589
388242 621876
368188 710952
696733 611858
238899 492633
24843 9808
507134 427718
159388 100087
209220 861133
402100 800883
661486 442404
24658 44675
667497 473194
433144 512396
30050 352861
721929 109501
766465 930648
755898 154372
323035 582419
910862 811092
298217 432875
930411 427670
189170 691540
25192 433444
198866 258564
965081 418075
537048 323682
243337 303855
955168 617138
741768 566790
895642 109285
765975 905802
502073 985042
512786 646634
850468 387703
184794 14661
785820 866055
532432 845144
35067 318709
328947 736374
855477 487166
845832 735419
472835 832050
566252 194093
368273 970521
59222 904990
686343 751454
891292 382725
233197 920078
995242 89684
556406 940641
681412 925006
184435 323557
745766 34640
744915 313080
527346 209672
358146 701357
218083 979992
537343 596395
272958 636524
631902 214082
467506 447782
39984 476660
393206 886006
865773 49637
895591 771115
373050 615794
218656 148656
218697 89217
631839 174268
627057 865232
328473 810705
30136 313072
950098 383707
547101 939661
223480 199173
805669 675590
367733 213564
373630 492675
512079 925002
701587 587579
168984 904894
691946 945502
900999 785888
745929 900579
527705 840888
178616 199077
696379 800732
218655 975491
716317 9375
462788 735839
158827 452695
323628 219156
70196 70213
810736 606659
831163 557789
497773 636016
735869 616597
318646 800898
581606 154744
248633 533102
954872 811362
263869 69625
671314 412808
581975 810335
447673 268500
969620 875271
915431 970376
482493 44584
791215 194695
347905 223832
716169 686566
621753 875692
945669 830726
69294 974827
54379 507244
342762 601860
99574 652488
358352 532061
468096 114518
487153 367922
597487 293879
576611 701376
407297 234041
332948 681919
248446 34183
959665 676137
676318 676262
84715 343024
502747 44088
681049 432127
881027 29706
786241 641680
184367 536954
940933 522211
398656 756253
954820 427617
303502 482466
313726 676351
915948 825965
800734 765962
925062 964809
134224 990270
865246 959826
625858 780984
741283 949923
69269 442951
69566 517903
368210 541222
89688 591162
124228 318116
786157 173727
79784 626834
264363 766002
606930 740186
119466 596214
866140 99823
706895 726798
293146 159854
701593 622192
353010 676642
881462 397453
970392 199351
667145 640967
74997 432705
422278 189114
676637 597579
845987 5718
443074 527757
651855 377527
149527 855849
99232 945170
990450 15284
864499 866122
632060 84589
278165 491997
632061 547252
875828 323312
740432 755647
513064 163734
446999 666411
507264 532431
208619 507121
189149 34318
437288 75188
267987 64765
407903 372731
433124 845744
119471 810505
198793 318060
756306 461791
851019 49773
273675 79068
690920 591893
4806 303053
129569 393350
39603 165103
727037 242572
437980 178966
393268 462722
810028 223770
323525 378310
666374 54836
960406 851169
164562 780920
691670 865427
493177 910121
94150 9748
746940 373397
651430 766098
9586 676379
795889 850838
731240 587087
412550 298430
646244 482499
576779 815679
721809 542133
318448 974901
179576 318560
910333 59667
959925 875328
885568 408474
338315 790109
44464 174746
840452 358711
293434 64912
388981 304106
841034 571597
855978 74368
701050 636873
695791 213813
333124 706429
472576 223508
4776 348710
108836 596518
587155 646661
442827 656463
711051 761171
99844 293818
59992 74508
109756 333453
487285 238939
522563 537278
820875 333282
154713 268479
119292 517989
939724 980540
293650 433071
144325 314140
35557 388042
602237 731298
761411 244283
417854 442821
631867 691581
90023 780958
25380 944684
477402 781124
821024 179568
835507 268687
711411 338156
900486 163200
453401 39617
213548 651742
239259 577240
204143 556747
462197 452648
502184 263538
970228 930342
930655 800400
303892 119358
686988 487989
452816 801337
975371 139650
865721 243802
239086 905140
382612 627175
129036 672802
253835 532234
935338 159509
576687 487484
721194 388594
332883 656879
636475 572092
931066 383249
969997 627212
700749 592325
951172 60428
944793 238914
113827 592204
621779 498082
492346 995385
367750 397933
870547 959064
298803 114219
577323 720910
796482 388366
437624 791199
467613 955607
670985 731430
627257 244015
481918 223838
637286 671426
114630 357847
233320 796332
322772 546929
711392 412974
432584 418409
402228 123654
775850 328373
34766 29688
462328 168316
133911 443367
130247 443055
139551 870658
676888 397324
64393 254433
777102 248811
904695 39900
940531 169286
214170 84331
895421 925521
632247 845525
716399 840801
582230 417590
995239 626762
477055 731102
403412 497023
383129 9458
656214 308228
616340 497376
313851 402612
855988 353366
920627 9427
537443 45035
706752 920108
765813 940162
14988 646398
508076 397730
243900 278633
642315 746278
502646 980721
994839 279060
437337 358568
188869 338095
591474 786551
188757 741074
531802 244098
133942 44329
920302 860939
50222 895569
397633 731324
20596 314091
776028 353590
845098 443033
223816 965020
477503 422555
536806 581766
741682 173570
393067 890439
532710 960330
288261 631963
531820 796052
9939 821448
144279 388291
24259 561930
741635 94393
621854 652504
795836 950362
810525 552582
338128 109665
387928 706152
582401 168982
278732 900478
571654 303368
930476 566481
572549 109305
720929 422626
851332 676233
427891 197562
318979 702533
970308 995035
110087 587270
532005 273446
33968 806127
268560 169190
607130 527197
601148 940208
348323 19699
626641 870855
915034 821090
99713 930821
597145 601865
990819 204446
487672 542069
731368 118623
811704 24705
507530 548146
830874 418144
193807 273862
860343 721332
353601 975001
288605 309041
945635 383442
870522 442607
333154 168600
34992 257998
984969 94922
348429 995151
984689 821773
293479 502257
263350 960629
796133 532786
69595 611859
716455 254386
344132 313179
203864 497835
940086 109451
482548 134971
930262 24103
552784 926224
334246 214043
577108 860846
184137 283736
377670 362530
224229 546503
891287 706424
905487 179080
303416 373325
119298 139022
970601 741483
283357 840802
587016 601586
333286 750847
273538 751195
20425 895541
527246 766849
856569 398446
945266 686382
417830 800739
631530 781007
527791 945161
885372 104502
860342 442085
995063 736407
929884 716842
452806 323265
477758 288885
378496 253177
656630 29546
69286 820646
447627 74385
820446 39575
731752 45053
318515 443445
701567 756625
372543 498007
984448 472512
357666 512590
512683 259101
581747 44915
104025 398231
422789 557184
382755 292585
497076 303263
661613 189129
537248 636633
109373 976155
209123 791653
418268 855489
959354 482294
99838 557412
104003 491985
945466 651425
35548 497453
670880 626094
850421 193683
249176 343124
109606 959783
343587 272717
208500 248458
890311 731081
845536 418641
770826 243639
527936 392664
900596 556987
676181 124957
776475 64761
418144 253490
293430 607626
114005 831364
238421 54358
343121 861017
785762 287889
587276 920300
586705 388622
571790 532710
621943 791011
572186 393456
830909 626506
333162 462714
143718 502813
681243 462568
790877 223128
487662 636306
104670 585928
298111 581561
408662 970587
617003 994976
682011 582059
418236 975904
556456 955165
49383 924841
408442 124015
373224 69260
80005 631571
989891 995459
392774 422807
905578 408190
632310 5592
850579 542778
681462 875264
516855 861679
228945 831012
632208 59748
278568 786155
447990 79496
233928 835518
114009 815983
403184 268367
412997 537095
801276 845627
736521 641463
547358 84833
935372 382897
945163 14812
860295 39663
49938 531829
199524 443546
423444 487276
229092 373408
184322 885592
806146 392822
681627 676462
730779 153631
139210 994581
651369 660948
657634 939607
959670 960006
328035 527678
378427 298685
139607 323175
139474 761123
213832 676886
493246 477751
964249 676663
65250 994860
284319 655989
845718 845563
910206 980345
183904 243491
496979 418381
457695 651495
114486 950604
866047 636611
209054 243660
378078 960310
934787 671777
935432 831692
512725 84117
467984 358728
994158 596633
924856 881123
806878 542683
895046 243802
278292 328284
661805 636423
318295 706662
895788 980041
637497 541928
790700 139244
502205 363092
363128 303271
317973 393190
25052 279110
79646 373144
79506 890735
358070 556819
203933 442102
492296 372945
726528 398796
353110 307551
357797 796144
457810 229361
641694 512695
646393 188226
428048 965255
392838 646232
338201 448170
790476 780295
318041 462340
298320 775453
890593 323461
15257 59002
756053 238510
860934 761410
756709 781188
329104 322895
198886 149357
760337 536769
168961 178966
177984 477711
771653 974981
950497 253487
870377 269087
472543 840273
447938 9528
791241 532310
830695 502906
815953 497540
830784 731327
834793 119857
602043 219420
109730 567840
348454 89664
178952 920073
905309 890360
15125 323284
676841 691121
666164 104710
696530 492604
860604 467211
249023 676444
691701 661258
970077 631579
965192 616900
776556 173796
427515 149222
810785 313676
233499 467603
467391 582166
318841 188766
811127 965099
39367 706456
214263 646753
647379 179299
925017 532068
601460 427828
198603 333888
795814 870805
787115 686236
268553 39909
427916 721689
984695 5233
59828 482095
388518 432686
690599 796325
791211 617106
443030 338126
396686 353432
866248 780884
502651 313892
980028 552137
298531 503343
233764 885800
815785 104602
940870 15199
954881 537374
423016 169657
850987 159079
363221 880231
876164 74609
790644 343789
910833 835723
660964 656508
830728 686295
547456 959933
869920 362891
403283 318732
302490 5536
452594 497602
686462 626402
437158 319100
944778 44881
577050 665870
393167 636981
153903 403115
840812 467676
761770 851612
696773 179156
587028 85103
995199 273367
204020 99425
382729 805856
726011 616989
541769 224184
954700 696071
830402 761420
587319 19530
59149 875635
950079 44674
88861 49881
968953 217923
99790 308265
696336 387587
512883 268364
10173 78706
826599 188778
29625 810742
278138 716601
124548 397469
944742 283695
84160 835812
606399 209545
253969 926146
522307 975276
54388 681927
54835 219856
188761 477911
805995 874963
10093 194992
611855 139249
29633 273456
443082 840343
462433 686616
835675 124193
587226 527837
940035 312940
651680 587156
209050 974544
214185 29081
611869 920160
322716 895636
393084 616796
228194 622060
760698 596448
34215 243948
969758 358265
721507 870815
54011 373482
965146 990142
44773 293559
209007 775834
343103 79643
472585 641576
691028 601861
840919 716515
258756 875506
368014 313095
293185 517020
229187 198712
731361 278712
403328 209162
44789 791042
462679 667731
44984 473327
571609 831140
388428 297552
900690 378202
24157 960606
855895 601697
696222 621860
283705 84973
119388 541839
14933 771080
711616 740908
283830 239313
472955 951030
990185 318428
139457 333443
328708 118761
617457 746939
562989 437553
690869 895641
34685 44401
36103 676697
64991 851514
108893 84607
373321 706457
720576 472607
59578 79347
661244 975709
980143 856037
84720 193342
994439 875768
771202 283348
841316 328751
19814 572086
984968 582152
477963 49265
577675 467859
501947 473060
119515 731467
940067 397481
15897 139171
835802 756229
791549 855428
791624 945608
820691 616703
800657 542052
427483 840698
731908 726431
676553 646368
34148 985555
731308 243878
786101 994399
178880 288711
382755 885313
163662 587768
691476 10022
557583 338667
875703 538076
189234 279029
288432 707221
985257 641708
373433 730963
139587 487470
477563 916111
348463 372933
646836 795982
955408 294092
432939 582694
224211 507765
770845 233779
238128 860714
104565 333427
506585 602602
283873 59740
597769 283405
612442 174452
129899 79586
671827 686964
880539 308500
766404 5131
472780 875745
277966 78968
438546 99510
452712 736417
622192 816153
801370 935595
975243 602141
95321 363319
900935 980105
89245 20300
159387 328341
685894 482757
39631 169317
631931 646151
69872 487385
931082 163647
770722 547421
876262 477142
855635 64826
358225 855950
258773 721492
601689 94325
576945 253689
716623 60097
691495 64206
458488 308388
890295 989916
676568 209065
282780 512693
672122 566945
965644 338271
233747 975052
462304 696778
666430 731924
775721 397816
736100 880522
29781 183688
960570 595486
219142 721418
169181 855687
238876 273505
562521 652423
174267 59715
183399 388071
960696 467146
30270 900197
123834 741570
408144 343168
870380 890971
781517 905856
244051 701275
547484 631840
403023 894932
10399 159508
69970 149315
621287 15390
934896 472314
458165 337203
124332 856175
765965 657279
940406 39971
458069 626954
233287 85192
357587 517962
567528 113928
79503 69565
676997 776460
427145 642138
169199 447311
417882 874916
308470 154628
218509 279145
228266 179210
234219 477997
248283 945338
5097 790300
168942 293260
169562 338188
771049 939724
79549 343189
597204 840610
985391 542288
24693 229028
795871 174130
706184 158496
213706 980373
109525 20575
751489 427698
990607 259875
920157 259174
457796 895961
710992 870617
438702 502166
597195 513242
144584 139239
741495 612108
239014 875567
23956 293682
781075 860363
626896 601961
482255 726035
492503 49320
576539 447508
726672 159520
328115 54269
661979 806170
144468 776362
676486 308603
323561 641896
294077 203965
616511 612232
343001 960296
615341 885974
472511 343600
468149 552475
104651 970681
975165 975393
875533 647149
218875 418562
328229 477474
517042 309154
642539 562197
791427 571858
248769 169092
975056 238838
517422 89482
130031 159829
850577 447949
333647 521936
810403 282946
193571 99238
353651 771323
10834 621979
656188 378088
765534 278632
229469 537665
143890 621537
372832 318699
761441 462958
945772 332126
99308 721220
498012 99406
671815 667110
746117 273439
468082 367284
233754 436970
113845 174234
841006 5001
223453 517531
666458 248341
606317 592371
726197 542648
418251 592124
741029 552233
990192 59755
959330 149056
502249 791254
636844 144207
715894 517900
153961 970096
557876 199003
801259 771396
806006 786078
806425 820814
835447 533027
831511 711592
577302 99348
328359 731475
666613 283274
24924 756352
79353 871243
288768 846400
751159 964714
701770 960511
397861 234140
626052 118647
447998 651455
498232 443492
104506 602038
909300 427641
194560 552640
726655 750110
571632 24684
382217 4532
368941 537460
223435 647054
890580 138830
493121 4776
527063 203931
188455 298508
527078 531887
358563 413114
984525 710522
119633 149124
716365 572548
557516 403085
427694 323288
651136 39223
591951 651265
163770 850290
169059 457768
422579 159837
681934 333307
233586 408044
914918 900298
497533 725777
164299 288082
313417 54492
308450 780272
497473 258757
616890 383427
163995 4842
497450 447774
29605 203879
512405 989567
880910 895591
537565 647082
25601 353885
24908 557629
861258 358376
587288 118718
34265 760862
368063 681889
850676 516732
710826 253651
572421 681467
214424 969952
935256 443603
925607 507251
59303 15272
979784 208630
602276 363798
870075 975587
691611 189406
909872 805648
34109 975169
676919 20323
825734 358583
268705 467497
949446 572674
452814 188648
512498 118984
686278 219069
989997 830752
412454 960085
656841 234720
64291 537787
28893 736741
726154 363334
79294 234189
691518 383065
423150 900398
760204 804787
219008 542348
994919 687308
656339 676693
143910 100146
461896 671368
323001 721858
328454 796059
154744 567127
29974 144360
512263 800357
671536 248960
741668 24525
264008 4799
766627 219636
890347 691666
497408 39794
522489 383654
925140 980517
781572 39616
94697 402823
836064 980452
258414 821089
98976 433164
954878 473433
483394 661704
651879 776265
517460 781290
39665 667222
775960 886134
501901 964829
681952 671094
418258 184015
597820 567391
457557 209448
825787 89928
925440 163918
795945 771373
512485 601924
432416 447485
969398 20226
194273 264105
328054 681217
905314 258902
233707 249251
816157 617453
835478 671469
328577 537498
357710 965090
313762 318296
995125 397638
10114 641753
781276 596801
557078 229181
138640 452604
472608 477221
527149 885561
312871 552338
44687 979732
820476 308189
531999 532571
566422 900124
194281 248394
373383 955987
975134 815735
308319 840809
253785 94274
228333 691974
502530 278433
899938 820483
870489 527711
168772 770521
881180 930590
587369 289470
964213 820952
582112 890404
407850 243164
422971 851030
935573 566625
915318 30154
9673 89983
975657 830964
472772 144462
258724 169094
512244 721763
879876 55175
318556 716431
144822 4126
114360 765973
183267 581976
84737 347754
59668 516976
208737 49906
59522 477329
417433 15006
930651 292980
79073 491551
337862 666203
592546 249103
791179 392732
168588 25676
79603 900501
59611 562529
289317 786321
835895 199460
820962 64465
596820 805596
975071 198694
890831 661839
452594 154936
164434 377780
412740 59596
641696 209051
636616 138967
163946 761295
562625 826366
547486 552350
965659 74029
113872 297990
647108 64606
791081 412728
537488 263338
169354 522223
825431 9459
840634 721536
447400 337938
74405 950288
761087 487965
964651 731349
39747 686425
114385 237753
632312 462916
736488 651766
153209 322980
478128 592091
936002 44347
546395 55571
348506 726547
954175 139462
293119 925762
223835 765992
144313 895341
552112 249368
960788 890753
840338 392562
110034 780112
745489 706624
721727 357960
825387 178940
199032 94705
955076 54732
511869 428013
725974 388374
795682 15452
626525 568249
443165 710783
726401 890145
348890 94624
358472 98855
596923 318360
29975 443295
294166 960815
945491 134033
75317 532617
259057 786203
178598 179520
378899 432877
393267 304111
293573 163654
795608 995156
104399 841299
592066 846229
726051 323996
422570 273726
422878 616646
979258 84890
213963 287732
930633 339017
825729 690947
104429 437892
178316 393515
143853 641295
467286 63796
692069 54168
965349 532804
144363 328069
288662 492067
259130 129488
318471 164352
537914 716485
313782 149528
661560 651357
45117 751087
602174 920662
756434 511744
577194 308183
860466 104400
914924 198504
214091 706919
387988 715649
45221 308303
826082 661231
467708 646733
512510 60093
890381 512261
881473 776496
382918 308509
59870 154493
94496 298598
835934 796438
621719 109957
781708 840958
875304 527155
408204 572577
90411 308310
45171 347960
765976 448187
119128 233853
224523 477842
780413 756010
59538 989639
631554 741123
10138 705952
666798 497291
815538 702193
50177 705912
621454 188848
348663 54823
323826 228772
238837 149721
467277 885848
194590 477490
467724 373627
830616 950037
895840 705904
194387 462377
84476 716606
925311 128933
75010 153929
433096 870323
14760 339056
655691 591592
4631 517975
875781 59929
283785 711269
701305 228576
109035 821103
368250 487428
99141 428089
373303 930088
632055 50433
730781 935879
527836 492923
860241 681541
388012 4698
183409 134074
646224 596903
572664 696478
527435 900448
423375 164259
423358 343020
273792 437752
800333 373095
607720 323496
69478 64403
995803 322879
353475 149426
730978 287332
701419 596991
955343 701866
612097 338190
636899 696293
407910 473040
417852 821211
512350 815923
621982 327794
428358 919902
760975 939963
905230 627227
313330 760634
94557 233591
845558 900262
771534 392373
229307 308422
134376 512771
372638 353705
25419 710989
447323 422960
443047 378073
935192 54897
472459 378093
532420 179333
159312 144484
567105 14834
49539 268604
248716 128619
950507 716560
154839 114324
517684 418796
965506 298567
497667 403034
825555 552082
920475 54178
338816 591814
378470 702074
169124 244210
890580 970155
508458 283697
652142 631430
173998 408317
442843 856164
566613 800439
229058 254012
74497 213714
39248 472250
795716 402610
237544 690945
283097 647053
387699 830859
49548 65219
681169 835881
138488 243654
113878 527008
84316 940218
522863 104828
99307 372649
671219 308197
110145 89478
303224 338275
243930 308195
581483 174605
422667 214042
104378 731457
328483 432644
54425 397458
318361 413083
80028 34770
222974 158876
283522 368082
502471 935077
298719 372578
75123 323361
298431 362916
989871 373306
457792 642279
950599 950771
9925 408664
288366 990355
169414 218508
383894 785921
850375 403504
312932 691756
247921 263589
35252 785850
716108 553371
651700 681145
487744 49419
418129 367425
452315 123550
149402 109714
596615 631444
74929 84465
811572 696291
761948 507650
482839 925842
621392 552943
353844 467416
835881 821055
472450 278906
805714 970381
516903 899883
423498 149074
855476 567167
641098 686044
248565 154267
238772 522174
720723 646146
731320 362945
159024 318514
433083 587137
920168 397403
353768 65296
885981 841333
726748 925371
428459 377795
178460 686425
104448 537712
447872 944381
944962 855641
771699 890468
672128 517544
606265 179215
30208 173932
44429 199303
443053 890948
865437 875461
486839 840452
462243 343365
686344 139875
448121 263753
99907 114452
223702 970101
412198 118929
477704 382588
259314 278747
239464 40066
706180 601907
119342 845850
875144 706834
657213 929611
900169 398077
810962 199381
731433 178823
119844 765606
835529 696487
880483 561592
720945 74886
980311 149773
318187 851088
945868 925550
274586 358313
397998 910992
352833 501335
527491 462313
879858 203913
477775 785878
895512 736742
432635 398387
477497 388605
895139 985623
985655 169513
935128 547179
716889 800887
149940 731649
412758 144917
915179 870446
154151 224543
622231 378350
735812 667219
134417 811080
512405 641286
74680 513291
761273 119387
294110 179603
174135 736077
994949 571685
14836 169007
974715 413162
158969 179228
656817 985947
830388 597378
960068 905368
178326 701287
934854 377381
79854 462670
964948 860741
4332 865928
632194 890325
318570 512554
94543 681569
756295 637294
542562 95106
254005 319418
44917 89344
681017 138804
974499 128712
258815 980161
756907 303538
363232 194028
571726 632103
353361 368305
670987 492441
606477 825663
567013 562483
795779 572023
889846 348018
675619 342939
318876 159222
750970 592437
721001 468047
711220 990065
865302 831531
128716 199217
238988 915683
223473 985065
925499 467660
726658 900754
607542 775735
383742 178253
333230 199570
979655 820968
810297 801163
950731 174383
129004 557985
233868 651195
194321 567304
472701 98857
119463 760816
513292 273149
776473 89990
935337 367817
273891 611765
681438 343474
473063 597148
159527 930188
148629 422106
433044 562567
452325 119600
79026 691691
508630 805791
641029 815488
781193 969889
333588 392960
577451 606799
194262 890652
825716 258765
601254 357338
755633 105022
935666 895795
876020 805784
870789 929720
317812 348158
626691 467762
14939 228332
691213 949933
447738 378277
925120 691844
542436 14833
979731 392861
129292 284213
418247 944959
5301 637510
103666 427990
751696 970380
253557 512683
989508 105042
412888 109404
354099 397835
775744 646647
129194 845680
184330 755713
850393 646313
353122 581548
865624 347310
124743 980431
780663 303353
592380 482310
859965 94547
368326 169145
636963 377946
820715 751474
841514 905852
283015 15085
810595 954789
452289 562125
477203 329117
373016 820348
581256 194371
20050 536732
224306 44183
164453 54979
428444 109344
537081 881388
901096 577453
880453 890290
24725 776154
955705 780428
104734 363445
671813 775931
423056 755768
402304 154912
218873 59247
780794 940653
258903 139001
612341 164304
133906 786140
447888 964788
701728 562192
950428 164284
383538 721116
661317 979564
85405 647134
800666 820969
656545 367664
836338 801266
277896 626892
532023 293241
885835 10026
493002 726662
979856 721208
144249 546759
830722 74630
826326 681764
453631 755662
55023 149613
274354 587313
283719 64872
497590 835549
830779 54173
657361 707415
965103 79723
164747 985216
870260 532741
567253 906079
860532 865172
99524 283565
602812 468076
745719 641258
263829 597407
567239 318413
974415 770874
413282 742074
995325 293575
467940 397657
198959 304431
488056 174462
980366 576742
239052 79675
631689 288005
373840 94262
368640 328526
4757 626056
576915 293738
203963 373194
800900 656631
805878 293426
367954 925805
815916 731322
895381 701884
229053 965162
442020 472217
497509 695894
567392 243792
731485 204159
582451 213950
885788 25183
39529 621702
955546 433296
244709 784973
671962 756136
193741 328591
164148 139181
333523 720878
223630 587635
686187 746772
681999 617118
547042 104676
174104 567617
288545 546675
467400 453227
776135 850703
357930 607023
667212 711361
796179 527527
691421 332794
825838 114091
428178 258550
303883 965229
816162 687073
248943 716020
30346 865117
248404 994424
850480 487796
881361 755841
746521 80122
153817 526767
830746 756301
214141 263153
39829 736698
323108 472824
526875 249130
218760 661503
940236 438220
731700 248863
179319 323633
188761 851404
572493 950056
924705 373307
10147 139003
945137 711430
268467 542097
810891 891310
403111 507498
363388 223911
14973 273953
522659 244226
109872 203722
15445 955885
666106 149144
403378 850470
462485 642090
815545 910150
84645 135192
572101 174108
771307 900641
189220 567219
398800 378576
492310 353125
373494 348097
119328 134054
4784 755841
586340 890034
950101 672161
637215 372788
363310 393688
895405 876284
701710 507939
29998 621494
612005 780743
676411 537292
890481 979573
208693 557627
776834 800776
751413 661391
243299 333136
5148 656309
208514 910423
283400 158414
427612 662506
855321 208616
522546 910390
89374 964970
194504 825849
841314 199270
930381 602105
730899 532510
875375 443225
383404 343288
397891 521813
189279 5425
845743 144355
104273 826251
527229 59539
751426 806215
229026 10194
761662 860585
39063 512730
139841 820798
969997 681734
288455 934539
641965 612194
497753 671629
517140 527658
55298 20611
338403 964911
467041 278002
467291 989510
512307 910429
841168 871161
288430 203053
29544 193981
616615 840427
786105 860932
830831 84037
39610 607495
930146 894874
477547 826040
284017 492548
652011 637546
149013 935633
343028 970817
362340 239060
945306 850494
347857 467428
492090 79367
19335 443736
4857 199116
786549 945094
910525 174026
706335 865280
536734 507653
890576 442641
984945 835012
503179 686763
626908 532399
317926 830775
861094 433035
298542 711181
770998 413167
865879 795919
641639 846024
472642 775925
577130 368110
597197 179307
835616 99449
248679 183864
383588 910807
139580 517276
670945 124426
885085 120068
771030 746837
129182 885783
35380 397653
801092 806012
75287 710652
512695 353540
587403 780907
830654 811223
576453 577262
900389 532346
283845 800086
974884 468133
636840 930310
432808 472383
915421 746847
894794 284049
601570 398463
860527 875705
517304 855011
621047 164192
975339 487916
39429 920325
851166 80550
955307 795348
338107 612003
905381 771150
133815 199157
378514 920587
109320 602038
845499 372811
308759 970007
930437 392470
880690 288209
592080 149136
442864 915180
372574 74820
980535 627368
477776 253304
253698 526866
333392 269098
438599 89716
557419 99597
716241 586664
845333 94694
596599 139547
755884 751253
770526 209207
382942 905301
397498 362890
522344 258323
288386 164274
562392 243729
45003 945208
243974 54209
19481 278047
99250 209116
880708 960350
726347 656721
786160 517480
746199 353670
721585 248360
477399 662389
681413 597212
651623 258173
865473 955157
373918 557288
700842 920830
397317 830392
995366 865746
760917 980548
109380 139238
278936 223512
930710 279167
562790 313403
522306 696841
562053 617155
39821 825338
811168 665750
950722 542445
59910 447268
925409 376970
835769 442314
602458 442292
551898 835304
333785 223552
586999 382602
870499 79906
218620 219116
969580 93701
984438 785551
492125 716381
45529 229083
359330 836016
607033 800848
845183 262759
387439 24906
448139 899956
840984 845677
984772 253660
551961 731673
537069 686614
662163 153989
546849 363992
826095 726799
253419 965108
452875 303343
378691 562750
389098 676878
885075 303446
378224 313237
99684 691563
258079 801118
825330 317717
576964 278141
915105 845406
159223 189806
527061 706212
682208 75570
447902 811446
318644 179270
284053 955155
492670 676287
925598 254430
746080 54725
477449 687597
472895 745781
711797 169075
920623 706532
14879 810492
766190 502027
552286 661956
537030 199196
159498 939758
203759 438109
926042 890321
601623 780754
382657 64139
954633 164211
766868 337633
602027 75397
607418 492635
14761 512538
64801 228637
576792 506933
601701 527535
257926 816073
527481 273856
104533 622207
78975 566632
293582 994921
138669 701710
239077 606929
412757 49385
647184 492877
800733 402729
552067 776490
731873 896189
43983 915776
745945 845890
333666 502836
397660 308996
517559 850183
512695 786629
89445 547553
154187 468385
437493 512540
905382 493070
919684 790595
427596 821064
955404 959704
447749 905684
900457 612628
159693 253753
427574 865230
243655 457220
939941 148824
457816 75892
313694 667771
59716 547002
985045 263713
984788 691570
238692 353310
621540 303955
418489 770799
940399 622078
855667 776155
293261 381864
303566 432528
343571 223471
795988 517327
557395 233815
178425 785759
715974 467513
736427 701146
477251 672105
283847 517297
606543 189230
587308 861370
562468 188495
298008 641530
387835 348579
309175 457817
143891 234077
532496 173936
871255 189054
139811 601952
601435 577216
945846 402630
537527 64777
253566 835657
875876 855732
507233 303596
940008 493038
467389 527250
821004 641871
373422 398046
667055 666311
417363 735762
204675 328528
288446 715374
557352 218602
766284 284042
164200 461922
866003 885644
720955 622358
904987 288775
572383 974718
373209 377536
438192 427766
795891 377339
348109 44300
30262 59958
552112 646609
338530 124039
69689 875028
830916 845885
243930 108804
482763 766488
661518 502599
915515 144397
398469 537404
756290 502536
173922 269410
636760 776224
622125 70000
85192 274038
273140 925978
487186 935810
30072 437937
790304 418152
975387 282913
218946 24418
681173 851074
855792 591541
104987 388412
905200 651546
378105 308524
258705 870633
417795 4450
183557 502147
682026 860556
58583 761636
4992 297998
9891 368308
368731 656819
397598 696494
164008 512214
149847 477613
24911 596884
278786 283570
527007 269384
990151 537830
557707 800582
725467 353440
263897 39923
482389 527236
572492 537355
531754 228512
224109 611435
939828 307821
557116 144464
735387 64232
487531 453732
218061 392424
456964 153530
103873 960840
517477 566982
467249 497397
412901 99175
338936 617194
766544 741736
358074 591896
129487 154087
646954 40421
726527 59438
84421 208663
497084 805218
662331 338249
189110 522497
581988 423550
856109 254378
865315 696227
49518 213435
950446 432066
512208 671519
138627 153583
676243 95308
29974 974766
900318 105436
124790 810597
556901 751211
775774 319097
497199 174098
770572 805310
148354 119318
984674 104584
637192 780996
846386 682124
711522 736437
681112 124129
596540 64820
308707 542386
577098 651522
383557 328767
188375 616818
417667 408107
890785 836152
50203 9543
770317 323088
518039 358846
910974 24849
393207 904933
188947 686593
273094 949639
721740 264340
685858 194575
467799 124361
363201 626612
133709 666602
616832 69736
164699 626325
45117 542670
587230 581580
591660 477856
636876 432875
209138 636892
204909 492309
985193 188895
945268 601363
731488 219257
581527 74031
194520 129214
129611 910873
507729 880582
407202 556290
910354 965231
249215 650913
49783 99237
755392 357638
437988 407772
497417 751698
293401 840697
248691 567136
676288 183965
148738 289307
198945 293236
576938 537551
860291 463065
253482 278601
586952 965265
50112 29347
556429 901008
69899 84263
397729 15258
751430 851071
437760 219027
502591 771202
408025 587222
5230 267901
920567 14547
188979 333186
944935 896060
855792 477492
686785 353317
243663 343906
447512 781513
49804 159307
249206 487700
198985 726698
119571 796243
880718 949827
417457 65072
916478 179101
657500 726403
567157 358294
407925 194318
193983 765779
149639 114349
731701 472714
975219 626758
516878 44639
929975 238560
831116 133768
483244 547806
193037 183531
90376 845457
806140 641488
582414 303061
169559 914919
293336 393320
875347 960473
84695 532084
124430 378207
721512 676097
572299 994740
691154 397923
686731 89466
388440 487716
119224 861547
806444 591696
606797 721398
711395 234060
651785 806038
611765 427842
98692 153906
353220 751182
353677 138570
79080 130019
128780 452669
442496 189243
168915 382692
915835 950560
825855 622339
462132 731153
557023 527257
392491 164063
447612 303852
79717 263257
810321 269086
303274 602042
159060 413702
582372 676531
214325 45830
253615 353442
213989 656323
905189 447598
4572 194021
871019 696515
213921 990671
452858 517174
458716 567237
586800 134364
468087 701845
561799 193720
387964 865023
34142 646883
597343 979729
785477 74361
104943 517345
801028 890880
985180 298788
781412 761383
935744 750873
935085 950040
895938 453302
756201 866069
710987 417924
856025 34800
781758 59506
462538 532185
84857 322596
273812 507564
745994 702154
437112 432743
915547 382467
806081 398100
497567 979894
969800 780580
900978 935214
74610 647333
149326 910193
631324 403369
731080 342404
239019 105337
959701 358593
44362 24686
910662 109093
701767 990444
626728 199235
208176 90208
377204 875303
54754 552567
547904 273610
751511 770911
223031 935416
357931 129446
671888 975356
840340 656701
328420 263447
39824 601710
29929 557559
811189 441903
566355 164002
169366 617054
974871 373298
959299 871052
4980 288819
552117 109049
134061 825726
268812 811652
457547 845749
223375 373070
612085 562209
229056 995416
34456 84882
458213 164985
592674 10291
924993 313470
875752 264350
159073 4769
984886 20589
482541 786388
671784 104591
322852 54579
462835 428377
198946 497846
687086 612153
581751 531838
527812 263915
174442 219417
571697 218974
522766 651287
717034 487713
462818 512176
910314 631505
521990 273945
716583 656564
706539 408321
661580 183526
139257 935645
945456 621848
930134 547265
900505 834998
656658 313067
800821 274010
687290 94073
358039 746195
357960 676842
193824 487373
974831 223474
547909 203983
974877 646599
477162 428070
198790 233214
79402 294041
631614 482361
620883 427752
771780 75385
34803 890596
368351 29628
526878 701352
417856 248914
393019 451800
412574 288675
686548 413521
800720 263517
895454 367189
790552 179047
253892 985088
159198 288443
775961 945062
647234 462448
690986 552039
980056 686958
866448 174775
115069 99783
154248 766156
706880 139816
234247 109541
721671 84735
915462 656366
442400 253469
930668 611679
153138 672027
756299 194351
920094 164864
606565 84380
870822 596469
312757 901451
363575 114274
925446 4792
920135 243763
711199 342904
238199 139169
632199 139287
522083 472500
830733 228522
716050 74261
562217 448228
99149 417536
29538 536391
150207 850300
124696 641787
712242 493198
44972 974732
816085 502414
277747 761634
865487 84626
626696 587523
562406 173432
741247 368070
975582 273384
144262 795764
636702 711052
826319 696649
587065 14887
199057 870038
567092 29921
69325 109057
955035 552010
626748 342690
70353 94702
537017 418022
94405 184320
745683 452719
527484 721411
143748 204561
567093 960483
303294 70207
960029 213624
378174 303114
322678 711625
591218 781157
328914 209376
89488 318470
303208 900212
442665 397338
403646 183092
24078 224538
890815 24487
54291 194686
482434 522473
268717 178746
173909 38974
457681 929942
411922 218272
492856 781390
507292 680655
402666 865784
940310 447038
721438 19804
45627 443353
626705 223941
144407 293291
239071 890636
129705 676888
353027 19876
959164 158711
332990 194909
388124 791575
532420 746450
512143 433416
850793 338378
477218 114315
766322 433251
826672 910098
312950 383376
299271 717214
139117 855665
989636 616826
931035 303505
621436 582226
442437 358214
522661 39758
24139 522735
268352 836764
358267 34621
661372 10399
930211 248774
920568 950519
20650 84441
596353 323760
65467 343457
64262 920000
50352 900411
104223 368292
432933 188703
870729 243573
169174 273398
84166 14437
150006 312680
238775 283955
990021 547260
199612 9626
44702 964722
338734 208721
517774 676127
601924 860426
796148 717349
631386 701281
34454 353543
64464 349417
412737 88941
487108 383044
353251 665933
184029 970407
378272 675755
631835 387911
134952 616243
273485 835433
243919 940163
153655 4906
691258 368290
59883 343331
327831 801159
889956 686784
437697 94563
507871 994610
178959 771467
681584 707054
925090 716568
283207 796768
925937 811214
702017 100436
153536 985180
562366 914596
432237 974832
104119 54834
920400 363319
487659 895561
761173 268497
930099 856407
397683 492529
761666 676325
179311 428002
811223 895539
845843 103934
437600 950093
815696 736086
302530 348319
308633 14944
796442 487264
194946 920430
462636 487955
258452 74190
54005 915022
204191 546891
741972 39647
124383 228799
165005 223961
701368 55034
193565 846227
239574 711707
19283 930755
303507 785810
537180 363174
293717 696673
407638 860631
457094 666420
74255 352886
29838 417402
297955 457573
855745 875769
666781 253739
387268 994858
969614 144230
930742 44256
547424 805919
497476 114526
248539 203734
586739 74794
870259 994425
507422 751798
591769 228696
681762 194287
70409 327738
482830 84320
69387 298497
851775 25606
994940 905017
362958 776463
507494 492161
950903 447806
353782 576974
676923 662028
905855 109223
402684 49950
59291 730738
786062 616704
28754 541543
796329 243993
443028 651610
502686 79216
308403 880118
477580 144526
890390 582072
940348 338166
303977 49686
959832 780984
9797 542409
716584 303092
950231 512771
407201 602458
607365 129018
885852 511658
745227 398210
805787 80207
726320 930518
611928 148722
337948 980188
5134 989899
850923 825171
457729 507595
303161 447786
621479 746009
914628 979369
194154 522300
64195 313333
169251 29117
274397 566665
940216 910910
149797 248758
611497 393134
607036 457246
199215 188960
631925 746171
875339 482600
885423 612251
234233 780491
244163 45348
701436 208955
303567 213388
929694 920416
457174 94216
592473 203517
775946 562473
238781 830440
49826 219044
64436 24918
392661 233543
243516 975235
601308 164240
512064 377833
631799 154093
264076 283584
155038 144314
139508 218505
119053 662592
657450 810321
64777 975123
880414 378157
178647 154866
482619 591793
119646 890323
706483 338087
875332 940452
567216 293434
486949 248505
781053 706849
740681 855134
880644 577205
223048 955117
254131 438042
935183 104439
398453 969808
35327 582323
372429 701368
691736 104810
780942 387970
438134 805550
661471 506879
428108 289392
721220 298912
263413 308818
333552 826032
293189 950018
954606 651449
283547 303687
596981 288228
840941 74242
989668 438046
885862 433063
920173 128896
994953 790464
387986 526794
964711 482563
263169 756329
482292 174286
611633 791305
870271 666606
691669 153910
507484 189499
24329 701730
930332 253031
342700 5490
591794 125255
422506 860391
338404 34497
880894 64747
402773 75611
705999 447511
228855 875792
552792 736035
835743 722255
577693 969761
397792 701592
492066 736273
422960 949427
970264 691989
447666 397933
926371 846152
448037 587751
134085 652097
587071 412740
408588 39873
831050 640812
538183 885442
766391 24286
378492 109690
531672 288202
517327 84946
154351 412337
790554 651175
322831 417914
562157 875629
234382 960684
765319 715859
964857 139800
805286 371967
626600 249071
910447 19996
368018 318775
716543 622162
845519 99069
362887 492353
441894 845309
960888 507352
15316 676484
631923 975236
975785 950362
940196 104263
189564 84328
185238 327811
736163 835623
551786 542638
154252 432830
501977 945600
542537 263860
731657 700776
80163 576641
929971 353314
308538 860859
845699 293927
308356 39642
557273 372704
855599 700679
820528 850182
805795 49779
183761 129704
422552 263323
890524 253997
751143 746044
274445 224011
408612 875657
885601 642132
865385 496909
955548 980053
333353 20107
298576 387327
164387 736844
34381 766199
636736 771610
984969 915808
854788 263467
158929 731035
64592 104145
224112 309035
422484 234076
562164 646865
861015 314227
820299 512538
10179 174254
412491 39729
288873 691300
735942 726415
353547 725788
502988 318415
447756 995282
388435 948858
14774 696951
850832 870323
767013 875835
930527 596885
333586 747561
383318 253915
596885 596902
99532 542260
502727 597051
741374 134544
328895 45090
949960 124281
168756 259448
128849 497292
911031 308582
706299 308471
940469 631515
606539 810576
129045 492001
298443 681664
273726 317640
99370 512720
189295 129189
721801 954668
691569 746593
845375 914821
552329 746501
452306 925334
377916 990832
701351 343671
964551 328086
243779 781240
40666 273611
501833 711228
661530 288066
159048 880620
432971 492518
930450 970485
288707 984695
308424 656901
258424 198938
641226 408198
542289 676245
382921 741553
129302 243512
269157 930001
487289 571863
124048 283863
900979 567140
851173 383472
428300 706103
815783 229445
54775 254098
124127 149199
392491 537542
458185 920113
895445 791652
556885 945471
383329 531892
652284 761113
139996 378462
203859 904680
895214 60171
934754 403190
363483 909579
174581 293729
89813 443526
949838 29856
527328 915295
641298 184208
896082 5126
119103 472184
900736 900512
19581 164832
925817 859930
44770 267994
363557 383385
238282 686601
448205 691128
736593 735944
755914 84245
940676 930888
855860 443696
622423 512276
20138 452761
746819 114213
786348 507132
54641 518076
995053 666697
149870 204187
756879 473053
373350 178936
149176 915113
800568 985228
128636 587213
542121 432358
298800 332813
129476 109266
841017 696226
237988 566997
671573 303021
955053 711738
596641 607066
517791 163648
487626 900503
815531 327868
288434 760621
825650 144502
681793 870215
597056 223785
945517 124352
357830 547267
362834 687249
989584 273680
318263 919843
935613 124025
571924 691666
865453 437979
343318 891075
542811 353438
795604 189723
537030 631805
492266 244120
264072 875971
736817 333356
537578 144564
855449 612008
701144 189330
845753 502224
447401 243460
636165 109566
218780 716920
412958 5101
73559 49795
274143 468085
298846 74120
756867 577943
815797 940561
880946 945364
397920 333566
204306 139698
816763 821451
298551 442795
879448 567427
428422 422293
89328 403107
885599 606737
228685 975534
183454 363282
377939 926185
984741 557106
219090 407279
815448 930915
692297 717292
562236 716564
184641 780725
840165 432602
403000 493296
989819 865340
104365 765945
687335 959900
104904 83999
970556 69298
199276 273459
408254 65081
795677 149060
581852 228995
825970 40382
930127 432588
169195 119359
577014 283662
397640 850783
622390 522871
14848 612957
457960 253852
497433 676855
159134 502769
74831 273640
159293 298844
975781 890944
298669 621894
428061 114532
159233 204182
198589 980222
890487 820776
433670 855905
243794 750952
392738 551995
990306 69732
815555 203564
925133 55116
925235 34877
820913 362943
835759 915587
627263 109455
253693 761109
751931 119852
532131 801454
278531 910160
492689 886487
407200 905540
447209 417559
990057 402696
657397 461921
104209 686932
935801 930680
727247 682118
283040 169252
730912 477218
39642 676816
204345 616817
761487 880706
377789 318690
865728 158321
79889 134689
517069 796381
243864 313321
348382 760778
453350 980340
363000 264045
796108 123948
557918 243570
846263 348360
189351 841162
553156 532158
776151 741091
398809 517763
433071 128748
796017 209347
422691 970246
338115 228713
631588 74047
785820 825901
641805 338821
348026 711407
850237 661521
502678 950940
213033 547544
950469 159315
571681 596841
447358 282746
666725 64361
85201 288696
54485 815513
352345 776014
64670 746732
840660 283090
308357 59403
94110 114670
572256 522300
959986 660939
178968 243704
318169 616928
358085 104908
776463 900499
74387 477844
338724 989570
737060 875524
845256 786073
139821 432870
368528 104810
716418 129490
95212 900486
880288 731599
881106 467918
975626 393015
303481 711516
611971 602189
756095 283411
433173 224238
487342 785355
477796 468172
30233 471938
855433 511720
75125 268608
974486 736570
751401 268572
109454 756534
990162 696457
423596 452598
846329 836062
408482 592272
865572 278853
810396 627603
801008 511328
815484 740967
612230 745416
985558 174638
652274 562293
298700 308234
880458 935329
626751 636371
188930 801033
302788 382851
273783 866042
790674 547745
591191 49889
974899 537240
154128 572000
188916 263473
174062 970361
49292 980914
572205 846110
815954 114374
681718 562110
148837 522338
502521 592333
358456 39795
487441 59638
810624 383070
965294 223734
288271 701327
626243 901086
547941 443183
193912 93832
59207 179261
746082 985283
318394 353051
263691 974591
119167 881030
372583 218612
910547 855384
408017 458034
934879 293595
701796 413276
64850 586709
904315 796585
293200 935596
985128 990335
731408 258371
229074 507414
9331 248964
298748 985138
517566 113930
815684 522195
323312 904891
537405 915941
915823 517628
532318 706928
517227 985467
930728 646215
959758 115507
810980 128843
696523 134254
293687 99665
239696 919700
238751 636296
99089 59686
636880 830564
482757 472415
582112 845653
776084 516971
751337 154123
283384 178500
706743 253807
582083 50041
517308 302442
397855 955390
816723 29832
512656 995238
627197 681533
979585 751143
30127 870647
940404 19953
910262 303048
372737 596678
890315 163889
810442 14750
935286 477257
761016 29585
383297 199437
338347 168865
911409 472829
975144 353022
14629 526966
453064 676706
740963 253832
760159 433104
702019 944921
413194 203519
238580 358336
159107 44217
178831 443359
974932 731268
288703 288708
552120 636220
208945 467457
173838 965902
362895 701985
622029 507572
850596 333463
383325 766603
303596 810560
666240 865227
30025 224061
104021 124299
313327 497971
780712 90000
457428 437531
517416 601838
766696 984542
905838 104517
607124 806342
308482 392831
209573 298694
586730 24689
99451 890773
467030 323403
138875 70104
278778 198213
716889 491988
602046 119060
627389 303706
557729 323450
760503 617052
457252 582038
910447 227659
572555 433016
632610 407863
821201 537289
547296 398987
393397 761268
736516 696274
935514 612023
551634 438430
715787 756260
338488 79146
392780 467338
885948 328521
173816 442145
338557 715894
298354 422897
64310 263763
646589 547170
433238 970861
566924 641660
746640 298387
283802 104280
218807 254022
368125 915464
303624 29398
492341 472304
477196 855988
134388 24955
656929 651798
879854 880641
422935 641801
831308 347826
507233 552946
915800 387545
522273 233640
204738 910699
492121 149262
508100 572321
159489 69591
596364 532266
701345 552041
805979 213890
502455 483239
776331 208679
149179 572557
521971 935573
303673 14805
711566 472959
666484 671471
865499 74805
647232 388642
691499 268475
313693 343372
691250 467454
179614 909856
950278 397855
144242 671312
437215 761473
895740 268119
881779 671815
915451 397772
701635 397907
377457 621801
427771 895137
402625 701813
209352 154047
617025 627211
94912 467168
861596 248684
631614 218922
243176 382503
740991 771466
114551 471923
572494 811140
861875 288764
258717 975038
343513 607058
168663 403401
900217 427677
532014 199624
541977 492992
601953 433238
622590 223456
159033 601156
800727 74618
110064 666293
24606 889924
983982 318351
417619 274092
323327 889926
487637 521845
890675 457319
19952 695722
737102 203291
308680 766179
34585 412627
328502 592604
84337 821046
526746 746661
39763 159605
363350 602717
741499 711472
970374 910469
984318 964738
970122 74423
472393 19779
815894 402654
124586 144832
248343 69980
626491 840930
393097 219262
496800 413163
437704 293905
259138 662113
110222 124811
801344 989679
378255 796833
462992 880754
810901 99095
840999 726105
909855 850639
133943 94716
437677 924991
736983 303551
492662 303500
293789 691784
323952 59707
805605 164398
184458 377895
969764 765221
627330 686366
322592 492225
701353 786144
452477 54874
10537 488361
343563 506278
293942 954547
517268 313447
676490 612188
188917 233627
503068 875072
213977 24174
64657 521987
691984 939998
104736 129240
84261 109831
392786 771433
602553 477158
955216 487621
567179 432606
501838 611775
203235 586963
801164 871223
343797 511950
601666 791063
681303 54967
318125 377937
283695 487710
30699 218610
980213 307919
54133 423279
816241 835899
462469 890720
39842 90174
760719 228842
373084 959379
880996 617108
173915 303877
860285 396930
820920 796260
517208 229027
467793 641800
29727 248711
9874 875512
974542 840783
900749 596739
323140 959791
587632 750965
586792 651523
74936 304075
99480 218241
313001 856024
935793 318992
48779 437906
164095 253737
328349 597147
651621 800790
587208 830582
532205 426745
462460 745730
208084 417343
925743 820454
114249 576798
25557 323315
710918 985589
298459 198912
860789 870897
233479 901121
124489 467928
199482 876059
686468 74975
875604 209444
841211 801042
373270 427972
173087 810451
308770 606684
119978 467449
766502 74627
746565 477897
233402 59925
433184 139312
69548 542336
228638 940487
651529 392567
969199 661802
179328 293738
741331 198996
875144 676919
243548 647095
79273 556927
303012 616625
602456 417776
572425 323557
815646 358120
561992 228755
626707 885822
611577 775670
453303 393032
751702 88992
939803 332974
30097 616827
651786 696938
890688 100133
457768 751445
105013 810509
348023 124565
178466 596214
303062 851316
796129 64649
392750 263366
557200 606812
79174 502259
457478 283919
302850 486930
826411 760591
711421 900490
158908 775576
856739 536991
217882 428509
592191 751058
890846 830795
363346 74867
751335 34111
104439 417196
790822 482207
139679 776854
815733 745937
955037 706413
273863 9379
113885 228991
263930 627305
472695 119658
989472 477308
477543 582093
378516 666768
522881 885503
208824 656456
910400 790896
84977 378635
323302 277682
915661 348395
397735 393151
75182 427832
357969 622575
965035 422679
348343 949445
293669 577844
328546 417426
318297 622252
965140 332733
810608 323316
900415 372708
223583 526974
731592 24108
980043 667362
209195 30644
526954 115194
89437 55510
666736 895942
44865 487590
920431 302831
756594 895816
677193 90446
532747 144231
19873 602188
841334 317883
776261 303666
174250 720697
557038 64884
815660 581390
114389 865195
293484 367896
894752 19936
60117 372748
820289 208924
900887 383252
990069 765811
796469 253885
189172 223399
4914 140080
740803 721008
507930 143735
751318 786220
29002 491729
134865 771138
675924 816515
806793 184581
725836 781125
711377 120103
124630 910554
84778 741283
129350 428623
428215 413173
313388 577174
373821 383140
59485 452175
213859 338526
104583 423183
717209 980439
790287 527848
706368 367795
532262 30525
651077 875996
283313 9669
686624 552084
109695 572362
517387 637049
288763 228738
681511 402661
423350 44722
442989 218845
124267 816305
284219 89879
796103 646637
592364 571414
960611 473024
238950 209182
949790 537247
581933 637109
756431 506976
586930 950027
248264 472521
636538 641455
359128 19833
925611 417512
636960 462036
497579 423314
502283 879863
846310 651808
84887 681445
711319 586992
457335 119455
636650 477602
711008 567763
308133 213553
921205 662193
940178 378303
990206 954730
811345 139356
328306 133987
338265 348860
248721 930627
596858 74827
761652 368665
89125 244456
487317 90395
701199 462452
671331 473083
64689 527746
571635 477533
552212 581788
646412 423641
651875 297523
870551 169088
612423 363476
795228 925224
592543 502183
616919 846120
706279 676070
254572 44500
527282 646601
402980 611426
407660 919782
715825 25314
531996 979600
139440 313545
701097 203625
59250 622057
402477 487663
970407 736805
442617 99899
238541 497577
115023 168875
129173 343151
423504 715571
273638 433112
448047 438491
402352 915176
870996 731462
218702 94309
805351 153606
243450 741029
228400 228840
686838 990101
383136 19463
547326 955522
974696 99079
984920 900628
537491 432791
253605 417690
671304 860516
647088 641814
591400 468150
935819 940645
373642 293604
159405 756589
671781 293339
955088 417890
900482 418447
353144 985102
816129 895181
452722 826076
632202 224115
851325 626886
193938 159622
417961 317979
328746 522639
850838 855848
382476 715758
268903 224434
24280 696609
592841 761791
213827 50038
725868 253680
448024 766631
980379 989791
955079 920753
253317 666955
776734 930875
467651 621935
979893 189116
616231 392821
323332 29844
123715 602597
567048 55302
482775 29930
362330 313407
323504 517117
118839 298069
841607 826052
905404 517400
865126 910295
496932 293796
610911 924663
312902 333145
866125 253191
806394 616781
457252 517412
696725 750733
900163 258629
870722 428327
184253 836448
253949 627682
244062 397953
800726 905042
701260 358314
557127 158952
367518 956025
547408 516988
671574 328653
198782 522973
546719 169733
940743 700887
253295 263331
333435 785684
418066 54463
84899 661596
517870 845623
73701 297978
368299 611265
218691 537442
855969 185061
935671 407285
711499 257925
552320 258617
786029 323854
368359 770529
358095 382988
496595 457864
174773 706285
233748 950388
831064 378340
994873 378384
268370 776676
159284 25584
497284 661598
984633 617310
224293 283914
646621 895307
795812 258738
825256 536821
408156 695992
194270 696756
566623 403199
163862 811370
214413 492454
273613 417822
234012 69994
546607 890932
701689 826127
44666 223467
810692 542868
413184 686978
327675 542831
710723 995459
24612 870523
616542 557343
14392 582273
104645 631679
148598 641629
781064 557885
870592 69396
293367 388384
183742 179066
661822 114672
84546 292799
303335 820798
910239 662008
203914 736918
198684 213615
592205 701331
741045 885960
273420 219463
686061 318060
4873 616209
841142 388394
149681 461953
830097 213704
974065 183844
189304 900280
481800 755665
164268 611722
710993 980241
517532 531800
781095 158761
945138 452614
890159 557285
656566 721650
637007 14753
382876 174705
631259 870740
223514 697071
871264 129518
875258 244360
905049 224112
163776 959679
617186 551924
780701 631138
895272 621912
447081 706528
393289 49507
652079 238681
109054 357745
253362 875821
382976 84433
621828 696484
110293 935802
233668 601892
129313 363700
433126 288451
646578 50033
19594 287998
720810 223621
721727 786782
527840 173773
164304 323644
184610 69403
343070 472378
736593 586949
512803 597474
189554 949926
721298 418172
487031 69726
64095 44822
855525 114103
841079 64490
865435 358527
676473 696259
268801 856254
721589 24981
906022 209104
557099 457621
954929 576827
940232 24708
711126 279052
969820 333405
288702 672192
954918 512525
572115 84302
273355 870622
45227 741652
69602 780388
974777 900216
253726 647218
631088 636470
178172 382851
865239 627037
178840 790536
80022 656207
810814 174430
945125 632218
428049 367530
10345 323570
880195 681946
472237 984974
611946 477894
398779 646378
288916 95072
29613 766798
367573 234757
477247 532620
696792 109757
990193 731629
980393 950857
492502 497679
696372 666752
772006 661750
786074 154290
537081 621678
323425 10252
408010 735889
855608 711689
576684 989343
642306 452979
74892 393627
223919 188793
935265 542251
631278 607379
512571 541873
750847 761244
10331 731845
189487 213633
711393 959897
879943 164143
303504 670772
870961 726220
551624 14524
552541 975164
830552 771608
676502 527949
701466 109994
989733 308452
959396 517395
815729 427786
457202 601911
960526 24880
303403 104840
228346 815812
651275 183971
397572 64775
308805 5137
851513 508275
69673 571962
183923 557416
114555 338184
94038 770919
791095 721776
697021 646723
502638 910861
79925 736017
830674 253610
651765 705770
99306 388031
383273 387935
770903 950296
566817 219111
711072 318343
328200 770813
960402 895538
557449 397621
507685 44811
955521 49143
164342 314242
820730 621953
54630 676779
129068 224007
502323 139114
353608 512155
467482 741857
473284 710685
811225 134083
810422 453802
627150 104756
443048 562741
274048 741524
810769 686463
338617 900232
666428 905898
303465 939726
691800 502444
577484 268956
507367 228738
248766 557358
15194 990327
373489 592014
293165 761131
830336 726142
60219 432287
706090 34711
193355 149562
84605 970050
135035 234122
378517 279707
497363 313279
19407 144107
612531 262950
437981 203593
994497 134662
910145 233190
910959 193916
527131 751409
30194 706143
820907 701663
353142 715900
154028 258962
153764 328647
811045 89185
54524 109673
114151 313242
687638 895027
10009 303407
10348 526619
403042 393476
846386 79442
641558 448055
214083 671971
103248 751135
940774 571896
651804 552202
652649 348389
338672 403055
483317 636401
119260 651254
960174 642160
790815 89978
990245 662338
129486 935244
582195 965215
601399 596821
253274 243325
740590 289581
935473 467706
417379 517263
183860 89327
596946 552340
218712 273362
781712 164087
423403 303305
626213 801022
556822 686468
194223 726369
751403 65167
741451 677034
492644 915447
796280 198747
591747 516992
502476 582641
9609 233798
939548 54660
164159 348241
596788 800961
457270 776582
840347 442656
303481 268235
940404 661712
736176 956034
995556 606794
771094 501637
915516 741759
75293 19429
239192 118915
482886 238782
631694 442755
517254 686960
940254 811800
666892 368403
497551 144733
597288 626824
776229 363002
507527 865107
815971 562206
696260 353778
770673 123623
253405 238761
561682 970144
955254 407350
88953 537161
995164 204243
650808 970073
974771 826329
99518 392695
895436 322756
730867 402829
919878 89619
681866 785985
457768 985110
542429 741514
123950 183902
284028 472294
880621 662293
139019 492181
990016 74298
452621 716451
542506 717030
313401 786388
432914 770446
308986 710926
651399 576300
218890 487414
14801 860951
945315 427720
890044 393230
940653 263518
920131 725732
29955 985376
164321 20210
616323 980271
820751 736687
880141 159557
233807 34619
95041 80345
372970 885461
124444 288187
129472 547313
791003 10250
501887 109171
855736 169631
576880 706430
328556 856124
427402 915439
487671 557330
20546 99354
119378 323233
631864 960220
279050 188799
188977 15102
40006 134766
58747 367906
775670 856287
910303 89326
59791 705684
985342 781074
507259 114857
413019 442338
447642 55401
179476 795476
966017 15514
701048 447762
676512 925409
811044 622021
696289 985257
849727 248802
19679 920233
950552 393450
527270 363516
54738 796179
990279 969931
820603 99108
865624 337721
233881 138720
711820 826954
223716 681534
34522 960090
24569 965805
895638 606632
701301 314031
805003 138758
930648 736434
119758 681168
726182 139393
831208 397822
84306 218855
279217 105031
736202 338303
194208 313468
985474 183620
49359 502100
886007 980062
148151 473083
69191 278665
368943 228298
308182 238130
736380 283913
59757 194180
875268 616518
512112 49231
337570 318608
99524 796159
183675 447719
144432 517930
626642 353291
512385 158533
348351 378089
362968 865772
363985 537152
164156 303672
568016 258327
716339 463161
134325 532535
338265 198631
900019 751495
164432 651923
914646 248708
830382 766432
646886 736059
506814 24434
517603 457388
691204 144444
447918 671320
686226 632281
636008 398257
264688 368393
835968 745982
970425 636869
353668 463011
666849 522400
224053 407660
921114 696222
352873 283654
9473 253798
308518 587094
109549 562793
338617 596913
293599 830712
716800 348441
686930 144588
183963 189022
467141 174406
29362 49996
114039 438080
397564 303970
547891 79220
596591 900329
457373 706232
129176 219336
506846 766078
422181 532025
731672 915773
890873 94774
582246 861051
940550 74436
318994 452542
278534 234050
173871 577341
433852 566808
29707 885588
950177 861044
661146 169716
889863 287781
567464 348862
776405 760957
168629 318425
836122 363123
921171 551820
452976 761410
751035 900819
134738 900587
476907 39005
9294 24845
64666 412923
39390 59805
139944 392960
959387 636426
392471 875775
871076 512129
213655 750506
731239 711104
676203 422735
174364 333825
642181 20407
19933 681173
900533 840984
338061 631856
581567 159512
871206 398459
124620 766499
412617 766763
397890 466446
994824 930520
59561 169290
293186 965729
259096 692022
730789 313884
701305 288915
447645 647092
59592 298182
193920 378351
289117 238280
592512 850363
367830 960546
99864 239081
84612 860627
984843 536740
606951 149354
765643 59636
19160 244122
456780 994930
632153 895429
791323 611321
397862 387789
597315 969072
975497 357695
98987 924734
318740 64772
183748 771215
245191 696428
507700 437236
488314 631585
815739 49719
761867 721177
334008 810718
358168 24304
935000 741586
422577 686787
726709 183761
352781 860152
482337 984547
587246 696047
746100 681402
437611 104401
785856 134748
118943 54852
427711 44834
955250 975336
492622 98921
959585 99299
194858 572222
661877 825861
651773 925012
358418 437800
84166 616883
975056 124576
352850 403312
25836 636628
542352 666831
213874 637037
611926 816400
289419 745968
5111 293268
218756 169353
721178 317739
199095 606932
184537 382953
561763 497422
831424 835830
522151 636263
383291 526995
620968 388223
702168 417250
194839 672450
353496 323509
293235 124893
909981 871022
159247 800269
462317 368393
581557 527342
343761 522391
74649 307611
269062 24569
711984 403211
582199 9417
805892 279202
801121 477513
75043 870805
373638 925103
786273 253975
79704 358380
457481 159768
94459 632509
567117 885166
254232 785993
462721 587942
939909 965270
372618 532964
343026 198777
571607 955163
561589 248647
234226 448181
720831 825611
875287 532520
711771 756522
925714 657072
372864 736153
357818 895187
179055 751810
332895 372943
806288 801440
332718 59810
333557 950223
134482 537566
243282 64649
940422 188869
955293 786444
397895 691695
721769 925897
313429 398633
288660 159117
473697 59770
925655 945542
115106 378503
885598 656418
786333 481750
905917 831005
94368 617376
392602 24908
278917 308403
661973 756581
343290 895544
711386 720937
776263 139397
825772 214352
965317 377920
194048 731762
652097 736242
29688 24835
468013 601217
432753 541633
392959 4774
332867 403286
472934 269034
284165 55012
795952 9601
995513 651634
969594 397403
503155 204206
894957 348531
681392 408468
258310 885550
437902 627206
248616 105116
755900 537995
706425 109472
218311 561722
189244 736360
592529 816302
65084 487728
725830 213939
747404 238219
527431 990583
954862 900017
417828 49224
159047 860537
934774 915471
164025 333397
438065 592272
979946 970057
402756 596933
244153 357985
755958 661576
526698 313770
651565 273022
686743 930663
503236 442510
886112 268743
656689 70131
676121 263268
298275 989647
70351 881126
646644 363499
770413 865639
284259 642071
199202 834944
19319 821753
676734 363160
730753 39662
169353 487371
169807 696431
881424 247992
382580 865781
412703 900010
880539 418070
183823 507785
919986 631524
322969 74580
143784 791672
855853 492253
766212 955843
975447 979538
616909 547160
756887 204365
547555 40239
641519 796261
895529 637266
189180 656548
90158 761277
621953 866012
422452 810788
343366 244213
587482 895391
437995 333125
40407 940042
30042 661784
158707 154917
552047 691391
403154 677099
124858 677407
735885 173728
44681 288120
95216 701939
561789 179135
959947 925296
582325 64794
482482 293390
657015 885913
870674 785643
282899 786427
612234 268993
427716 602160
750153 473233
184223 990577
980085 224467
731826 188741
328071 293320
337822 99264
328479 203963
736698 507202
975264 596602
4893 830395
24514 989708
546877 910972
661707 810995
706769 532823
780948 622083
980067 875974
596617 462631
592133 830136
108961 512234
815142 786340
108665 836417
342843 557025
30260 909783
323320 776203
413120 890240
347737 497751
317817 696861
432916 636892
298307 218686
477488 830724
318544 303410
884597 935259
119993 307955
776528 865475
199845 571591
696531 601960
602286 89664
387911 572226
233258 741236
35202 617141
75207 791351
915087 333806
293270 850296
940310 477305
702012 641156
363076 676947
830978 193965
149121 960501
4869 676744
701472 94631
939943 860681
970348 751325
696080 303582
855768 239231
482258 49636
318197 601642
323032 666206
39339 412699
39660 716414
362687 845956
120065 20280
840422 587558
432538 4640
571967 910865
10556 29799
268230 513176
542305 835911
214492 497386
865820 761176
84381 188447
354083 895374
900409 154504
497351 945445
512740 422206
720560 55011
731528 84874
612339 224641
726696 995211
268515 54790
985357 736692
557866 745755
522403 562250
532240 104759
865954 392343
452308 477211
780449 94890
109806 283013
572095 935694
801342 442342
647189 572636
358208 313130
552068 756007
293786 592450
736458 223453
288979 59671
547105 532407
531965 79374
522579 766280
462986 318622
647201 278919
129125 348183
194557 179147
875418 160060
219338 54964
606825 184501
765964 148811
94385 243451
537717 477561
601546 805267
218836 865748
507535 542508
288402 969674
606345 29280
611986 472696
99507 885751
671418 213776
811162 363883
880679 919859
527422 870570
985733 502915
59556 512772
546835 796538
328778 343865
517495 468023
557724 880258
696037 208770
651440 627096
646545 318132
353542 343221
368469 526948
959606 179638
830958 282956
183801 651205
502076 143950
850101 110123
860577 298443
706868 417984
751057 447630
10035 213464
805302 433363
124620 4953
914939 567149
362533 507277
173988 749956
819742 134588
428093 955417
532736 556704
870745 154535
721750 254033
179159 830659
806193 337380
14875 135160
850721 725837
930118 531476
93914 378190
168685 701742
556805 94409
5342 148937
855465 4617
557142 223807
114287 497417
99371 785475
209361 94300
258420 423145
884779 149722
204240 945970
452999 10161
149660 123940
313337 328321
726885 820548
229258 89539
173990 939960
50538 413455
368136 790999
39923 457635
388217 14691
900112 562906
900408 388230
442951 730763
587342 622347
314017 805917
99559 467217
263612 303163
770930 448392
307924 934692
661489 791308
601998 572030
487213 940416
472694 825868
353113 890442
432971 806263
781319 732166
19970 368590
507775 686327
810892 348740
134739 934814
581824 133875
30080 338488
437373 447680
994553 264098
188872 975317
120218 49870
407235 810779
611016 463048
929908 642090
511941 174907
726417 592048
602226 402653
647166 690644
483111 950403
432975 676203
771262 611900
671657 15728
716266 377673
909760 985020
616408 771405
636795 537367
527409 89336
547548 45250
79859 954746
994885 511860
69360 526776
865417 806587
737072 935377
681872 830945
4811 925582
412717 567043
164251 134492
929657 438087
632220 705732
736276 79494
682102 118392
313635 224368
929509 949659
164371 537574
328384 835722
193470 408050
74462 781518
164752 443060
975485 69350
194217 433341
553031 815250
671919 985265
487819 283599
746478 164157
537203 965469
303684 328616
193731 253415
775791 423133
596714 989983
249407 975834
702078 850898
876336 373014
950964 757089
149379 526882
84563 994635
169418 592062
9608 94294
288078 134702
373285 130011
94234 173686
731276 462612
387779 736208
975400 233690
581278 786025
880627 601930
895221 910119
945038 233845
113912 706967
990135 43950
89233 576348
59623 810687
831316 143907
675682 382888
34949 213671
910637 347887
905945 929966
651823 333472
427756 224936
980137 333119
806161 273500
617018 517764
641887 885877
591269 646972
587426 90445
955498 611979
204333 835760
15529 656298
886171 567540
313574 547382
328147 766319
761267 512604
239160 775749
915539 139379
860561 413144
457642 820871
69509 174770
79087 602849
139802 950758
224592 691393
457450 99504
477508 537276
875797 144285
591554 487458
40106 481989
816510 462446
914943 452467
40114 915188
338004 652000
312941 298782
552563 965339
139099 566981
154149 735750
755761 403474
159381 408007
715941 562098
233912 825702
905743 702298
750718 716722
557238 422929
333752 333531
472327 4719
786121 601694
960422 740983
726405 328068
168994 288126
39198 517505
148609 770548
706816 377726
169355 582073
641994 954791
427896 845940
258966 930321
671940 701032
104168 253747
616790 597194
338286 74396
517223 661816
224158 731396
109439 258989
632115 522112
959758 109378
805849 925050
332942 204440
955787 4239
328569 124462
223307 433538
323161 860947
397964 98925
950561 313973
322884 984636
318515 214261
253516 408015
556849 263935
726095 562454
965747 273216
940201 84318
661831 128997
168940 577170
582075 687043
54467 866185
89245 636739
706470 965219
104390 740715
506963 382781
105477 835573
303255 99674
730619 333635
646680 815767
850551 278596
686092 188881
154686 130012
427625 612722
800450 457677
507080 527179
765653 94651
168979 676459
258903 840977
462454 571462
233223 178200
790670 492491
104616 651514
895578 168894
815548 756313
786088 700771
666600 234199
19349 218737
138754 304064
89774 566551
159396 517450
760786 651751
293711 825909
989955 671697
24546 606615
34253 770733
954667 744864
845862 795925
776439 602001
337819 253340
422780 327993
105356 298846
845981 591962
746055 24755
14755 721681
488251 856444
785891 537146
880067 989665
880675 651589
911202 666918
686019 562198
263269 243815
208612 537463
712349 831111
701343 691786
527265 611767
974931 657072
786216 836076
398052 980199
851446 865484
442461 233493
363462 323982
656683 337866
920113 338248
497070 561926
602600 502432
930570 840999
208849 19346
731111 646696
422618 492249
676480 835930
49760 606706
940312 144106
851674 40029
342868 517735
527396 592324
119197 726785
318217 806601
98995 199290
462168 959760
428236 860831
54846 920035
806280 571731
432392 701812
198814 447569
960576 59604
720615 368095
254173 109564
522087 587232
895549 776002
447581 702003
29935 498675
4365 492439
219002 726138
691377 253327
806315 69628
204142 428069
745976 367829
35097 367575
840292 333438
626559 561986
949852 4741
666560 735968
934724 24660
368194 159125
452722 641914
124427 716131
4984 716405
94854 334293
636657 691985
552244 74534
686540 437175
463031 965631
756216 970323
801830 204248
671440 75192
790910 298738
164165 715739
188984 318199
348307 99641
870796 985270
975730 935841
313881 587008
55062 736677
910586 884917
736051 944598
810533 920711
905790 542358
248110 562504
402523 10506
79590 398735
153836 94754
184161 30072
586613 109875
861086 954794
64321 836056
706565 223946
512452 979858
308528 70504
134775 15086
542767 830352
820643 522278
29227 517787
40132 577391
348424 407994
198838 751379
566658 443002
532454 398706
89087 870860
169774 70054
577005 462823
253463 969527
283329 825747
835878 955751
676060 940452
651346 611106
870511 602060
272970 492231
238856 850614
641868 89519
900746 247746
199146 393015
223655 641730
278871 214774
293093 870378
467520 39798
333617 477746
297970 855696
626621 477375
204375 949573
54567 293356
502428 398037
214037 775979
811280 776677
960042 312660
288005 402399
298867 358804
69890 284641
626254 795830
925066 536978
591833 552004
333300 442884
890261 368994
661092 204633
99443 547177
955212 119276
20436 257799
642231 482810
970019 527526
304054 805456
239320 412943
403278 870895
861066 855375
920639 562274
741733 765877
44629 876170
741407 895497
179098 870385
348907 184084
109065 9739
776620 298674
278365 173985
477091 974375
582691 651793
54623 651720
964825 164010
546681 234005
59891 458064
657055 223038
135026 502503
736556 368362
721106 497577
666739 29737
990505 915826
402649 637266
940277 577485
457893 597213
179044 283698
44599 129576
54515 785551
611467 482383
135060 427324
64745 327866
124936 930795
895823 189015
546764 765882
785906 597269
502502 890286
80085 834761
696845 93907
403448 383096
850072 293594
642124 462525
770927 696406
448078 801167
666368 990182
880743 621904
4854 960015
388483 726733
343126 612164
348859 795763
989566 975925
467643 74664
397151 612516
323132 616795
736080 990211
745836 194480
970120 715756
507162 665847
19533 44707
174175 64295
975147 50090
20247 576843
183357 765983
362949 586542
885755 831313
259012 940468
313520 795721
263881 990247
39029 722036
806456 990611
875914 119026
134463 727131
283123 741132
761914 791134
701928 353565
383154 453087
945703 99011
224272 551634
975690 820812
821867 592414
621582 158703
477553 840332
343044 542432
641658 905479
144640 248913
5107 775820
613159 20160
383403 48726
388107 179216
930439 155003
323402 134200
716035 481756
761881 960216
178797 298620
158685 278264
970213 826414
919463 74736
746918 855595
463206 497470
189360 30129
462560 904982
632201 507736
651708 462660
900250 547697
179041 163964
134537 706493
433167 984532
144714 273806
35404 328274
626344 144665
214204 583010
532274 506650
114431 531964
800526 104849
114139 164575
502148 258748
765732 695698
886167 472293
541898 855385
532323 268666
831014 527092
218947 631622
691449 209346
423382 795606
950394 34848
736258 856016
910021 452988
348839 830756
278924 358189
293401 512251
228906 443074
547139 905355
199358 667093
989969 761034
541920 373311
293490 39823
463016 681339
377957 338162
691831 985388
4978 154695
144367 368320
532406 357964
427407 985434
34963 94913
978830 637360
562107 93975
875277 686192
741382 243604
372816 234271
307505 322634
65192 298487
467445 890936
622548 880763
29349 722499
771114 691882
184806 407943
636333 576876
517008 472774
627014 89607
144385 980572
572074 34661
148995 974551
317693 751612
307810 233905
40056 209232
103951 457278
745899 423193
522654 616647
975731 288551
343384 59637
711967 821413
79925 542441
542265 646746
398236 766832
850709 845454
30371 970040
741079 502077
150078 964812
69415 428198
293412 487742
313272 209631
920626 800979
308540 592234
920335 775590
388150 49688
144115 34908
68871 433286
348046 517423
372724 29813
34504 143855
138968 417617
278280 457351
229098 4390
228675 213663
64443 437917
397817 711308
283404 297828
502209 233609
119430 910204
616331 368318
860776 183786
766209 288395
422419 761373
99681 477220
183660 860838
453342 308761
547306 69264
791169 174350
179458 602507
841093 193963
179199 681417
860778 810692
478195 258745
164581 567659
472310 960256
34632 836160
239136 423470
920362 904827
800755 218833
238799 810702
84470 333716
353737 522585
557625 906061
627152 19793
99428 895575
25197 348757
566770 551752
508191 363376
831136 984985
681650 354290
477771 343335
830590 825328
69647 914735
820391 408107
592628 19977
69691 372732
323645 467809
859942 478482
64542 64951
448306 536893
368252 920952
517284 979907
347939 133929
139615 74589
577298 338516
840232 860325
452563 253295
990057 417634
915568 920509
188773 830735
830603 975234
607162 522542
934788 934817
189327 746325
318096 403457
646889 268867
701961 442309
492162 297725
925575 154726
826070 721428
84643 457495
914756 482193
964697 770995
701587 651875
526909 189119
557464 79898
263586 95084
373653 661513
995212 402772
939807 651904
482281 840637
49261 398105
427620 312902
119176 691725
825807 467539
168744 602573
278485 323140
412831 850633
597637 398108
393253 701158
108834 940011
378211 816168
760991 945670
268192 407525
388321 158646
278141 69603
44904 651860
487625 756681
895864 84883
612224 835585
253511 462066
89726 517703
9546 925798
40483 557704
333828 919675
711212 954858
219497 338452
616681 641704
781316 561605
576923 89638
556787 334111
795698 43716
686744 298766
661662 670674
373273 124580
556666 328443
811570 407306
985105 54734
348693 313918
636571 308687
672389 770774
626190 850307
741164 865663
109659 25002
263653 482012
347847 159615
840462 45116
671765 850640
9559 208224
452567 964582
164301 273340
790571 935466
850962 721698
805757 746001
841203 616682
542209 935212
826199 407988
895398 139258
20550 363514
869893 198767
606920 631663
761916 821199
751393 114280
562308 731709
442312 109306
422232 845716
751067 49993
641738 671922
313437 875449
383449 188519
706112 84811
541803 393591
104433 94571
865030 248535
492970 64344
606578 617195
945409 178837
980312 283735
930823 572827
100016 835392
14715 422911
879930 333443
352865 243483
725413 357634
875575 796373
125257 178914
641786 766145
308290 49256
103574 114149
840546 224205
666496 616545
367919 586740
502286 437634
194185 949972
388432 661340
900806 551922
393298 269196
731160 64447
935780 975658
687225 169315
129299 114042
428462 596992
760996 224303
805625 288606
601875 293358
840770 238259
750976 990028
567256 816577
343764 671769
840148 901084
218777 795720
273919 308492
532771 825500
701652 482351
925470 14603
25410 641843
910285 537836
860638 218444
596307 124745
502496 59467
866178 233748
895350 528041
318688 507424
606910 736705
667105 760727
776273 667097
939843 417974
79593 238698
925871 144950
254259 84717
935117 587360
586755 323420
995730 925243
472783 467870
223306 59861
582005 985051
562344 796041
701604 174357
44890 806178
507423 955251
323479 254097
24865 358343
721937 662175
87877 263648
358435 816033
408189 383427
521730 65088
925341 969905
293538 353778
476775 846241
770785 219052
119355 39506
40171 303589
811180 358150
651665 954976
15253 209189
204482 30156
105044 154684
144836 199044
433050 602071
274141 940133
493695 437957
556796 258230
20377 811710
652044 35164
517363 462607
895440 755607
915534 612473
617201 740482
725974 34210
905399 89214
313470 243034
248141 860404
438217 228686
65011 701488
457347 815804
343509 343657
577194 298612
387423 452873
556905 308347
940198 791265
870391 636431
835664 234178
761123 870642
153660 124079
801201 397769
785986 204186
114827 467768
865816 323519
587209 661957
721354 447650
119681 209400
542230 974359
621328 920223
402425 825245
278345 940572
124271 259127
269047 760695
303643 343327
308035 328332
850665 860570
393244 930449
467378 467780
328985 880354
527360 129399
508395 845596
178863 691045
691536 676940
596975 328380
920435 159250
770765 80100
372848 119451
169388 466935
219156 522100
124957 756594
766367 343546
850535 989999
189453 219042
422246 890683
636385 134703
377591 820687
791391 860502
760888 785826
820701 930789
810492 945288
377357 591751
312808 482411
736366 970734
799833 223624
462488 258142
452809 880624
805891 606404
915290 577484
388879 397356
24903 129484
960534 89650
701452 293450
114329 935021
477979 765918
806037 447623
960526 328227
149495 342552
427863 397796
949715 567326
43688 64174
567023 865341
44898 184435
865893 989837
233494 925820
542533 861152
154174 885466
920342 781051
826324 323538
478275 701421
368183 686353
15165 393263
433127 556927
675798 850567
532764 393127
248035 980491
950361 303024
637379 497843
64035 796605
929730 15022
119187 959703
208313 308164
591887 473056
348032 178841
960715 248482
55725 761917
243236 516875
19928 661782
880571 234686
895645 829844
486652 642265
29523 741076
273034 298259
333515 761619
64698 910058
397608 751365
15501 164547
119466 264072
685913 9720
179363 278790
880670 487413
249235 452099
432781 746516
601886 960300
696006 691540
601924 507869
930585 488019
99590 228738
288896 666454
596221 164120
930423 591543
676854 801710
880042 646881
352723 114752
925135 114363
622085 453424
348404 303670
15370 233781
562356 233300
537364 696499
368000 223437
576598 24868
273782 208656
308454 980593
79513 572336
746427 501799
716042 69500
264300 950112
79819 448117
834860 30166
243099 403321
716647 636624
885748 974974
493019 790898
487841 930327
69194 980068
617032 815325
397922 880961
15489 328686
751251 294093
621407 945875
189393 54825
771292 278162
895878 353752
940271 407935
815600 94889
453108 239548
914660 368067
358926 373567
203809 457966
607440 94691
267945 129247
402959 576122
945432 94631
716294 875265
35522 512945
467447 547715
497800 452262
646657 825387
950729 915280
417502 611475
926028 652099
114376 890889
323416 458308
661666 621518
716057 537585
39252 199942
328383 288661
607347 448065
821083 552668
133950 165136
707229 283127
487070 825624
249068 427358
671608 99421
781107 422826
277695 989887
219060 890402
453113 885211
338405 746186
24987 144409
9228 238553
727125 835151
795751 587123
482837 960662
478172 497588
143795 990390
855852 268228
631768 298538
716400 610759
836057 906021
10144 959848
592982 875486
149333 686317
338688 547776
407864 661798
294136 298502
59520 382278
174524 681559
632185 572427
641586 492634
34766 377885
562909 786165
184404 526515
158837 915131
905593 159403
259391 293553
596730 581962
477559 960495
736545 776102
780936 601913
99963 601603
298071 403829
745891 552104
701318 865836
407822 865475
642084 855456
283549 536973
244175 447249
884962 790971
532491 676737
372989 264063
383546 114323
39320 337852
546895 358917
183978 158872
144479 805598
74812 716359
855226 851052
895742 472809
497372 482437
139711 721678
964670 701374
742033 706476
463472 970118
816157 313664
358060 955104
198562 612044
830659 313460
676318 462105
730594 79874
556935 134620
557102 930057
367130 571844
676355 732265
637117 482570
408240 627283
164077 457651
198501 865908
229409 80531
248468 363324
821011 164568
472971 323542
745877 104374
661996 482309
214069 277962
462955 383212
482042 314158
323802 965817
985688 945257
890908 766118
129297 597469
676701 900831
523103 795893
438377 975128
910505 725433
317844 900585
442497 15232
124526 725879
487720 224085
139114 930850
89939 790624
566957 482659
572359 781376
238538 193438
198676 984735
811455 432503
507465 984997
279040 741692
835788 691579
512352 741239
725783 527033
358008 576844
577421 980177
227888 776177
552461 338712
487505 333623
974648 875390
382716 492787
472353 895233
417948 432646
980391 755684
726312 342933
483088 652120
617586 277742
208493 408650
820680 975182
602430 59551
497976 586408
855119 144104
571667 134273
263195 53969
507955 486971
706972 691890
452460 810981
65102 816306
428064 418235
164621 950057
522507 54741
248581 936006
965164 690970
35269 711922
775571 732057
253204 472810
134601 104966
935143 84413
453292 213483
84615 168786
682082 716248
293374 890225
179245 532254
467850 840312
517618 104755
278500 134337
413194 352982
368269 392977
457265 134024
830504 776222
204654 353908
24765 800722
780950 656510
771266 676526
676710 218973
870761 224170
193358 906845
671389 39399
84388 413287
651819 821277
929768 228169
716135 249184
383243 582018
786049 393143
865734 755581
159193 870807
611852 557127
741019 263812
99853 676771
298416 836841
433143 860455
756385 40228
939953 816238
278928 631523
875561 173877
273620 909700
224304 771228
571412 387783
178710 721518
746234 19888
586696 915731
556944 149350
491846 443525
208676 258188
64460 188560
581424 164235
870487 919972
721135 626611
955237 751211
109172 173848
248720 795740
50150 492702
656682 746232
438835 552187
676736 483089
75293 293564
314091 780983
568140 737046
428198 407952
801543 950172
482457 641897
492172 124521
447477 408207
840840 865887
497767 577387
989265 34440
990342 726107
502660 995428
9800 54697
800808 4349
770925 184194
885428 323402
432141 731113
815922 611979
347548 557082
194183 104632
108956 248512
816049 44394
204012 130192
303448 576924
845766 492375
442411 895472
711281 348573
433213 726194
298657 821052
547244 228502
273073 184468
836983 244392
985317 358100
342709 443079
940273 730909
607590 970518
154218 462785
512102 964999
985491 392426
154763 442772
194244 656893
347816 656604
572700 855858
139702 382415
219542 44505
29987 397947
636540 288447
343828 776448
959996 701527
59981 886189
268011 49477
861135 880617
979827 939899
637037 358667
806203 636069
88985 437779
457171 874960
512532 458281
15164 144227
865330 109736
571427 332691
258583 282884
880407 74968
567123 438193
158673 597448
686841 398221
542016 889817
900484 9982
716880 805283
512555 129826
432957 114411
557563 119220
801121 711606
970920 501816
303270 994718
203266 657004
487446 44823
373444 204153
387962 35391
846690 109466
552274 652815
44758 896334
945475 776467
735701 706336
382472 278209
407638 328329
581217 368194
373004 651723
521927 279152
572334 278518
911215 403402
562128 74567
148941 756012
99196 766290
124478 49768
264321 686413
572205 840243
865646 666626
836012 433081
443237 621815
751439 467804
616950 836068
323563 99532
964524 229020
930949 115145
39667 562489
781052 885266
497753 387146
115005 990678
542296 218805
621871 5282
860584 323694
497338 845638
299175 233728
725925 676351
109696 497975
542210 288603
353120 288243
556598 681561
24898 850998
602318 990612
780664 990181
119600 686323
935473 686597
920487 542098
920147 741213
586394 243724
30113 198957
129112 467899
268650 517360
5179 323720
64579 876461
184600 930389
627052 557609
293811 328992
342595 70153
825574 518396
104890 592332
711153 547097
552764 507754
159354 442905
706832 203504
517160 935364
980272 74812
934987 736280
447888 457262
95131 328750
109799 254230
702489 736035
75320 706362
904312 387651
413023 148905
64636 368072
602238 626553
845847 646751
382856 80395
213538 567165
264487 865724
392691 323105
995057 815832
44492 253668
159731 149198
856259 358064
98955 69192
228582 592268
547513 10467
174064 497597
238593 994935
264079 372670
671731 203735
428777 253578
238515 507751
228600 208711
99638 298375
666893 452589
756439 447565
457922 969969
561642 258928
428022 990093
308218 398018
507526 716407
463303 701738
785877 332925
790853 666671
442863 447225
845648 979810
158858 293864
228293 905183
835651 950295
954937 481996
502596 522978
920312 890152
84368 423299
816282 527145
337821 910461
825403 4893
572078 153909
263976 805779
154453 597001
760828 562817
392851 925107
960112 811458
795903 348189
119431 741025
591598 711162
890624 881400
428049 726286
871149 139349
696433 651519
278106 65212
208822 602544
408590 551509
994558 711605
686604 229380
363685 885597
880970 49354
771161 557031
442719 715999
289072 352846
253980 979502
950628 979932
258703 84841
179003 641399
149419 791813
158746 283400
348600 239449
318560 846037
586892 114503
442615 184748
716530 442959
606142 940133
980694 198944
502277 885515
308244 790969
163955 874829
343587 39444
561916 467683
373156 468071
532310 721017
791546 368435
946064 109599
312951 681626
219158 79501
437044 49440
208504 969913
497463 288828
24579 183798
114898 19870
39284 493067
800268 293154
676747 74621
194392 831253
34834 557700
194105 512661
159055 960820
263146 198858
527279 801732
397752 402624
845503 203947
458355 223726
372461 866207
378127 905385
383862 59788
741313 781354
885236 919651
472214 94127
636710 904989
268777 508067
323284 313263
656200 756039
45060 760690
736590 288239
896320 696686
448025 387545
49316 945473
49731 546571
686517 567697
134831 119616
591929 363150
312706 492684
701503 432896
950442 960241
159326 168894
24544 442199
647277 716885
74034 119017
318596 367693
924834 99284
761331 104749
59563 980498
512895 203706
601465 323798
701413 372542
487306 517453
830997 681433
701398 979808
298196 721923
770857 970388
746068 591773
248630 538084
55092 871289
119758 756252
89456 223888
243275 70491
477516 945389
697389 194665
855695 890448
144261 105021
154257 925503
174170 234481
478327 233559
666291 795674
438079 830661
368146 174031
726916 208556
144506 636675
746587 632325
830803 587352
671751 456885
229623 69875
517501 964959
447661 427637
890841 115161
576903 641872
666929 502511
4887 815579
975543 721138
552842 696749
417836 571948
93641 527355
940160 363773
253025 388008
955243 851075
656677 403023
472171 308522
691477 691587
438403 840655
54808 412436
119642 462584
741374 203508
686747 596653
378334 756282
229049 84290
601508 203759
765941 268865
164194 835814
582136 632041
323918 835749
607931 786700
373201 338859
228496 786107
617139 766025
926244 940453
959513 497776
607080 691373
158987 990382
537944 745966
94272 447850
144314 577169
303687 542060
865836 711109
149165 562710
776164 507839
358182 298866
507770 556988
806200 437255
437734 279261
283489 811209
383395 686366
701983 820373
169683 512834
900715 666375
745882 612264
4871 859796
526981 950054
413592 661717
383714 486646
756413 845380
224009 895584
631901 368260
124171 462633
726358 636704
328053 233655
895379 840794
761708 522830
19425 228474
353678 875520
790810 145454
392907 188765
984719 80103
367584 851713
587293 149512
910463 318008
273212 482925
592311 587715
696165 581950
935010 716806
378776 521911
706655 199992
139589 751569
582290 219781
83888 547288
193401 940110
576684 597040
696665 99967
268713 348869
830938 164609
820947 452572
274715 338209
278655 108685
606438 473311
259129 567126
223992 443061
287890 303489
35297 522204
666141 423391
497205 229334
761628 19412
4865 108834
796063 228809
104618 24449
457905 324095
681686 298249
199364 418145
229219 482513
567675 342924
821547 880695
516761 278782
303153 696176
602094 183800
382861 154092
477581 616768
50499 109412
532700 497969
556875 721370
174421 701789
442864 49664
457930 766314
457902 428585
363064 65431
253684 706088
54773 566945
154539 99285
40547 856170
59916 940111
447421 984786
145009 298869
457643 607143
89902 606482
448013 204244
875409 183220
198668 771126
542842 328441
114401 984475
985451 378145
198245 536726
119365 109345
159039 885615
169014 611832
233811 229282
232843 656618
150403 297859
99819 866064
586871 328261
701754 915644
402423 830879
626452 287969
134565 263561
577645 174118
453085 487717
925176 775735
641506 776529
706258 45255
735903 815778
642385 711350
274181 363426
935258 119780
572792 487569
601762 696539
25171 611497
682033 34900
716268 984963
49384 780487
770872 760848
134237 338440
582229 463241
905216 945243
761247 169015
581503 562129
128984 989748
55165 542349
373174 34858
542929 428153
99269 994491
89829 418019
89687 755480
10289 651827
756523 532305
885337 801338
586666 337954
905058 800966
585935 765578
562576 735821
915345 785699
382558 547083
448443 278429
168927 493476
960629 551960
438078 800791
622443 617563
90215 746604
881136 607216
268870 925594
566918 716249
706391 352724
681106 143645
969864 706681
209392 895717
934709 815991
75529 254293
50507 616788
394339 736228
368179 54358
472050 616990
920398 577706
123430 591979
631097 267808
617256 159101
173925 397716
701759 661548
621277 711603
433025 64452
591541 79810
726197 701742
561336 159138
940543 213901
288844 412361
134064 19985
561648 472763
99731 204205
845354 776123
482740 760614
507331 497084
532301 696676
622155 59470
248783 641596
820765 278717
249041 919859
204025 109618
110058 661684
437976 616282
741525 218518
766181 780553
975109 229455
700451 994298
800766 318461
616829 647154
546717 925610
721845 611817
949899 134172
378571 845502
507338 930142
388054 636884
682329 45454
725958 895837
477023 880557
308440 701473
398158 621829
477871 164299
224534 781120
224410 472213
312395 563038
159756 726192
562011 974938
437695 273931
173588 631729
14787 746477
800951 636096
218762 15680
815730 647701
830656 935663
468105 776454
652067 825512
831444 885281
233451 358619
457717 423065
193676 308498
895997 990008
746734 223227
626101 805927
970023 418389
586607 422897
437944 487570
347676 263007
100078 49929
432650 890567
339041 233661
173508 840921
377818 4331
746197 621383
646661 273414
507496 84879
602172 915960
571830 298041
537988 870933
840519 791337
894872 954855
99820 830843
755598 641495
885192 870976
104791 223042
970060 492254
333262 979885
124566 791296
696531 278661
805683 144155
881080 153281
596508 418195
327964 94647
825248 119425
543390 503116
721396 756310
263355 488059
537107 472331
218773 805625
293886 238940
273133 965153
527997 775767
785866 358171
264072 970123
358287 646037
780433 138438
323140 80157
945758 665856
423831 586638
134164 238584
730812 736415
955133 860892
472369 447257
403695 711303
934611 109614
188595 935976
826123 805755
646803 851324
736776 974888
44372 721455
979739 40033
313453 596732
582105 647405
641905 69455
124582 795996
840826 855374
596395 587549
248471 25696
502530 636425
676591 452585
950096 238797
915416 427910
726310 283918
408492 761909
617470 80132
631938 9595
706169 328506
443316 333270
492894 128879
552439 287921
766314 264284
417634 133411
781005 964710
591662 726455
517256 149725
143981 408177
35081 89009
960668 692259
29710 711040
751734 776270
233762 328244
55067 382775
691114 184113
213835 168984
478108 512385
69427 194245
337574 672384
119200 496984
402929 139599
114727 44670
69816 845597
293736 318039
472861 944996
990643 382604
442063 880395
422363 229131
318656 314289
149972 194236
596174 362943
263041 20471
652074 676520
905215 969765
452987 542232
378499 248667
989677 193958
766619 233912
323143 159125
189478 323264
960519 795922
970151 113928
4935 89980
865390 602221
104925 323079
268601 293970
860277 353432
103956 203772
731838 890509
766285 562066
50431 711335
337505 457837
14500 601848
448147 238080
676595 129141
223992 601734
800430 840329
378732 178672
815307 238149
60175 228846
461773 219112
756262 308542
139304 532339
269378 771136
804813 755936
90391 462051
153681 880375
446930 512271
721861 383647
154151 588002
816178 472278
198870 791385
164037 795801
99603 667052
59569 487411
586822 816576
959777 528271
25527 886130
14604 865152
775957 975788
83817 184064
184292 586594
467514 751414
273673 398190
989943 875650
268090 905287
507914 263738
706289 541918
678015 179595
707438 856055
696202 233735
676585 542777
800794 919985
791007 596971
288046 880567
582375 950057
652291 667295
358254 602377
178564 925443
149418 293300
123963 522173
75066 925292
438832 148319
228111 616233
646844 925834
123530 561949
104004 577342
159465 810625
930636 348343
820940 821716
647139 657504
79815 522214
523131 492571
388297 278377
517346 626878
780516 582335
373021 457722
59062 50016
532803 278613
14845 298401
388280 551457
259008 850317
855849 456827
423178 910892
213830 174079
746698 383755
178818 333614
686607 373661
562198 507724
969894 925759
208780 541643
124326 363242
860180 960307
631654 791034
790906 65214
616988 934938
785665 144808
358159 507838
467462 199698
626904 278240
835777 895594
35342 313488
293188 378117
801005 79395
786171 188838
502343 347784
745983 906284
84132 9634
443097 113752
59612 308657
547585 641518
571969 184164
637175 248436
940187 29208
194382 945435
492703 771007
944732 497624
865986 283155
681344 303731
646848 949937
50286 632231
586898 905375
696383 671824
58949 288833
855592 905257
293730 880814
979876 468110
149035 602637
815923 671470
24975 716210
163322 711642
930391 99153
621906 622325
990176 706288
651706 512260
303119 705644
726653 790720
735509 914904
89114 821170
35546 970251
492642 637140
870190 208749
273593 984963
796486 492624
891064 14659
885803 154376
945815 701618
333873 571952
144260 243238
392582 801152
259077 746517
378607 25345
199078 104858
804947 561969
59636 352807
881040 502799
606235 407987
601498 388115
163732 452435
277654 746058
70362 920353
806201 5272
647042 990264
15013 104366
890978 214137
333595 651808
641677 522702
173944 671786
886392 143680
965198 856023
323210 602649
144308 940229
387664 109933
766596 726580
781824 194208
601793 413163
134058 806118
700679 965517
826160 801056
338488 467640
870766 910681
373128 891616
204029 606270
755350 292793
223266 437458
45126 49879
831126 542227
363637 606992
944774 378128
687340 791758
363128 283757
472426 681503
915212 80120
751270 755808
89693 228618
258357 994468
70146 44639
262973 840768
468209 408156
154809 367921
826245 24192
870368 338585
880412 716123
109544 412794
681437 751868
602121 756121
537299 830440
597248 49457
378016 283492
89838 238924
10293 184080
675698 69198
756395 936071
244278 622008
343219 24663
547862 292832
149493 841383
422658 607100
208606 4464
267893 641726
243551 551975
736008 920301
771425 636644
49310 104509
84568 502770
263876 422615
183635 64717
437267 154381
960350 532293
552327 358100
178623 756216
393275 437955
74582 313121
506888 332991
15016 790036
681169 428275
516864 49236
582069 866098
472262 363055
627627 846004
422330 388218
487955 402619
795706 283782
905692 925789
513090 766060
900225 109904
786128 571937
229114 970923
652382 885246
105126 15687
25151 552605
353085 900620
621736 392304
342675 20160
29452 761272
218638 636433
611645 845452
497237 104614
855458 731733
532670 756614
372393 159191
392755 751742
771329 269100
5450 770841
617052 99187
25359 428069
203628 25377
591504 497913
164145 502556
646669 253640
821663 746448
149099 378811
691821 776570
273976 442732
383737 477792
751393 357781
328026 482667
656740 552349
258720 735262
348443 512815
577092 239143
776756 258835
363346 940815
617399 880263
408216 681980
94907 642714
677234 322862
69313 54610
109269 691359
561184 124036
89275 15893
199527 378215
153744 856400
269425 124459
283329 482462
94606 567346
308653 612333
25262 527099
989236 39728
368235 890664
113792 492828
786025 363667
646829 885494
915263 337825
124352 34941
29436 627138
985224 342693
989962 338388
970271 945248
840453 925844
526890 238389
372816 80759
687178 407994
204016 821418
118989 617062
278107 611155
850477 890427
114127 651347
517654 790866
990450 985176
392929 228740
974680 635805
219328 423206
497351 109426
74636 347859
732134 781259
730735 208933
213968 452303
213246 307801
34691 527430
59582 726017
671220 900842
194287 711386
810791 253921
662012 596557
413800 199196
995053 238885
836007 522309
811052 577270
298308 566910
558129 313683
616284 870522
562754 397999
84784 473157
482446 602170
895517 44754
780852 403262
626796 427833
442544 736320
422721 567115
452327 666229
860368 616607
821386 94592
885447 874820
776067 785547
148389 188237
895352 860635
104503 511824
378742 397750
249159 672372
954718 671281
60547 721567
740759 482563
402571 223760
915593 64768
571506 726331
333239 636675
258347 473152
557151 969874
954166 274487
129694 890607
472267 282982
950817 884930
541897 631649
482477 746331
597203 278369
785639 696600
258370 796451
920894 572637
159585 492116
800900 268861
403273 705686
193639 591548
94888 357832
273552 149721
676007 830248
785836 397774
442685 935448
468099 805591
214171 163764
44197 84832
313608 348404
622369 274248
621671 244174
442716 626561
114244 850412
706572 89473
173695 676103
318470 671833
830958 831083
491952 10125
293980 224650
24543 69565
55374 4814
274112 831049
393907 780483
811205 989968
34199 154829
458026 129400
745858 203683
443171 790741
104180 915176
791174 94407
716471 750752
661382 477741
542041 617002
637169 184626
940389 507288
462619 69677
407657 432869
611263 397906
746550 626187
751588 536723
944965 218347
104657 552338
88764 731759
979743 716513
472082 631963
88854 994880
199791 502760
323728 448453
258186 596562
128771 40176
312870 955467
463028 304250
493269 283297
895173 691887
551643 194420
945864 413173
925619 318128
89617 671313
900513 278904
214466 14261
84139 123448
173726 786086
184998 303087
845041 716256
29950 75142
283726 900209
711736 661312
752041 224461
547505 328049
736734 379079
741069 387391
129012 438581
273448 959692
821589 501849
263538 104441
726501 39854
855559 377941
665927 790906
626448 263224
934972 785967
452965 432942
731354 4739
313248 353751
935809 64639
930827 830634
562086 403088
641761 274137
786541 532330
865897 706956
731907 636783
293580 845838
880552 278381
278016 556881
647152 566778
54517 582023
452967 457410
109598 437673
765743 960521
98684 482569
681167 960336
994709 5262
168710 622606
89230 447185
657093 830883
791796 845756
915061 54181
467999 253018
64850 636706
612204 547046
372251 278957
612333 716451
750947 552232
990113 179382
104253 289133
760642 313250
532564 567263
452755 780665
492243 960370
203891 896067
850380 501895
39853 108761
34853 612226
662343 964796
123554 989651
781495 119173
79772 985552
661686 343410
184270 597698
288954 209751
945200 527499
531900 596444
104577 74988
815945 751213
850994 303680
521860 163641
393475 154345
448274 348284
791045 259303
676417 49967
806036 482577
785518 626717
736358 25361
342213 750545
139302 672195
700763 333247
790259 30032
542817 527705
511965 682344
741888 258222
632015 989547
89839 164309
14100 303059
900263 203804
611518 994935
19702 632203
695882 413011
661677 547024
641334 780794
945608 572640
995073 795767
915191 343544
348486 362833
283899 751041
657930 248607
433091 393138
189039 383236
900349 571480
24985 536795
875467 398087
616736 253846
392951 935591
860305 791474
407950 766239
974967 134297
448030 208664
805945 651198
248436 298483
781212 348532
890658 377728
338849 432473
408036 502507
377684 552832
900294 363232
273681 84270
243237 264305
491723 840792
756666 159712
646253 905396
59545 412541
303544 462157
940782 821458
417471 890337
44666 273842
268371 884755
273217 701109
974904 29178
866099 656547
707218 587266
164258 890493
29607 930128
557638 25630
616993 462164
138898 159055
677184 488026
994789 871083
407565 109649
805924 765932
304105 736643
149737 551641
595926 44276
413242 631678
299141 586984
159257 447722
24691 234008
697133 775923
149168 865619
527447 502654
909899 552004
367825 353599
945997 472869
219398 517728
850965 418568
432129 537785
74239 542520
263514 592217
771467 383200
502898 378551
333871 567308
905351 169209
915391 959917
900488 263297
726320 979670
54582 348048
278434 935345
477255 318069
681525 761320
69928 671739
875627 4930
238365 174011
322845 701511
930588 94475
39785 900826
293684 94069
965643 64541
268820 895163
657101 363619
726824 602163
756407 930730
477937 139101
114784 656428
652478 9378
54284 706519
516770 20042
223433 428071
472967 85185
895438 228713
233500 49945
726202 547746
393463 795536
840574 980567
651321 582399
502470 487607
527186 123851
855518 671963
661242 800349
552432 238516
402485 253449
89513 990017
532881 9049
273452 686701
815961 55271
343519 746470
647286 840966
253593 960355
199435 881219
567448 606995
542289 39669
815880 373387
369314 737126
253256 581468
133891 979666
492727 189306
119229 571249
975350 144234
224188 621740
884896 551972
710789 457700
731107 94649
711956 601713
199300 532277
736427 552146
950947 994720
288120 905435
751522 179187
497909 626472
895422 487837
761083 293155
597270 701695
994801 328574
776817 641442
209103 263381
193445 641952
378422 940338
632093 19546
910478 771497
159442 84995
840931 477625
343314 647196
491912 666289
497161 89248
417846 293588
527191 965313
423297 104066
84375 890957
308646 273310
447263 750930
378103 114094
437304 940352
766370 616349
94286 179161
572426 940518
532321 805629
223963 581177
129234 696118
194429 54765
273678 651737
115305 940691
681623 323651
119090 268167
677078 711312
119204 631716
39618 283274
636710 238648
705925 278666
776399 54625
392932 830353
229123 19090
407788 721242
925422 19741
149296 149263
989539 736333
30320 846131
935426 884887
447863 880320
601846 85533
497808 641968
875291 298744
820268 583325
810274 338452
353876 820823
59526 129672
547267 562155
183953 20161
875215 781768
24474 447735
373306 487079
899991 407671
546961 652168
89107 652059
844997 467843
10318 896008
343246 9543
224640 741612
790993 497573
119992 587423
914761 98734
228488 74764
402942 343447
338838 69870
473059 512477
631675 422976
820920 54680
417818 94709
213644 641552
338195 621359
45069 109711
810291 676458
930085 890199
627319 965567
412807 258841
860074 726264
597280 765694
44555 149517
681135 577185
602485 910821
562001 696764
597150 129719
785447 567115
124370 969773
662080 437597
636874 637039
129624 402418
676937 980156
412358 915123
318474 944475
637285 149169
273874 895331
343078 433295
119568 955472
79290 5497
342833 950208
616760 388327
940633 755293
204272 322477
30389 402826
805675 929782
20382 855927
736466 183897
392538 353571
591950 29249
761558 64593
771466 452779
955277 343359
134760 49617
726216 641390
994715 622139
323448 487390
676658 507559
611857 388569
771476 910553
204336 168579
443022 884637
646833 124762
512896 198903
84413 89029
725879 970278
347481 442572
188725 124483
686734 292514
407717 657429
646300 557265
109183 292674
695472 964732
846627 392950
875400 229399
801604 168587
313577 143242
566783 672060
965214 363317
411784 874952
656787 876133
403321 44445
536993 297902
631790 776552
741322 462958
636987 59731
468001 412927
626620 955477
447856 602053
750562 796374
129647 322911
159232 89629
497984 646607
54259 104594
746765 467577
502267 248520
681440 437962
671608 84867
850100 656660
736689 864721
69712 706427
442639 427835
761036 587021
637015 512723
581714 760204
203666 268602
940169 586872
154316 960401
527266 422154
919972 249245
203705 59813
348084 482926
432922 914891
994642 457216
532288 562873
134321 383077
572034 94921
781323 949620
322908 263569
54965 99178
841121 516550
939687 269045
461618 815833
924924 736240
358674 770836
502156 169165
123974 159931
119918 656713
950032 478384
44906 526999
736561 427622
537909 442887
532655 865721
243846 617125
571595 915079
491316 179582
706502 79373
367630 726532
567687 124391
965709 960454
522531 716698
596893 940820
244259 656907
696123 263677
750990 895070
765983 199218
94122 248404
785699 219180
975362 114580
741407 667092
511795 249211
15470 775673
751591 855397
711265 711044
717067 149571
238137 93975
382367 985685
332410 925736
466646 910371
965253 188451
746955 282900
551169 607915
338419 587453
437907 795567
149529 73953
527172 323136
462428 616597
104393 391528
158957 835994
766544 796469
408548 198499
214335 985024
88999 115138
522754 915591
860748 502297
836081 212937
706253 954751
39426 816611
626880 193829
224575 333049
273335 253689
607044 233100
193532 139119
871018 214151
327971 452907
288950 427576
413207 819986
915340 756322
283495 631422
393237 756794
497548 880551
512448 438627
308663 378485
920871 586572
303634 243334
865835 900049
656863 860728
30152 896035
482844 274012
567274 168665
552141 591337
353584 616442
139096 403072
284431 133817
567012 954938
228857 925768
461937 273392
54965 627642
845952 721908
965473 447397
850191 462609
925248 791469
183799 681627
896146 930228
159774 248654
388147 910495
502635 840893
521622 567322
811075 228782
148653 716198
592008 388488
856334 855462
422855 781507
691299 810215
199043 99614
417524 697094
194040 507535
292943 412131
412813 164758
875636 333465
264310 74105
980103 601601
178491 253722
960387 736004
14513 124843
656326 148993
313210 602419
65277 114652
731936 108864
746542 561834
631842 333495
44782 134595
979744 9646
975271 104549
233818 561949
845483 447746
230068 188805
871015 949880
333539 741020
69435 576820
19752 567596
820840 378408
313048 976131
498335 572222
44308 372415
328656 925187
303933 930432
10214 771255
935681 248973
766339 860714
467330 283723
402877 403189
9830 661688
313505 612582
746416 413679
193719 915322
870774 403157
955655 835458
20344 985085
995141 154252
64610 377494
537602 393087
696877 606349
795916 581734
477672 457649
134470 746472
214264 681553
253673 934735
298295 522634
308357 283865
750916 149994
25339 209143
631830 273453
382576 780302
845532 308554
104261 90267
547022 706380
506802 671719
969674 960264
293447 895495
233145 129341
662075 735862
791451 770883
294364 373134
497552 855518
318609 4773
970368 700826
631794 477655
163891 383164
437128 269334
502242 254348
134516 845945
502378 835587
547793 612703
866493 547040
975651 632285
183790 975348
696715 846386
322869 507464
84290 612165
124360 293550
303725 890713
214444 556691
985043 507281
273608 144317
387942 268226
836034 438072
905340 805861
820786 318723
612255 890936
108924 532328
108830 99917
561240 283805
368662 64828
402255 477901
243984 815862
596882 662201
243838 299044
612098 188844
681681 457465
735910 800621
100014 682172
149094 616796
795242 557387
164154 880489
950360 49254
70029 950400
735751 478121
388361 656353
4623 670984
696407 980136
373253 357877
373083 188503
517727 139314
268305 304049
213564 606141
667074 189304
79302 815670
228504 900384
35575 486608
974842 20077
403285 571407
716627 522622
776150 149255
596840 577210
193660 880564
198718 193932
44820 264250
969816 159411
572377 213960
98883 104301
298194 805860
765901 686836
144867 492663
497603 920604
164378 482424
50086 184496
34605 905684
303157 989026
920044 806175
830065 930497
970205 378389
279561 388519
278215 542533
338590 45325
870706 681672
154131 54615
352625 263883
566942 651760
621822 801255
596907 368158
133930 393172
884586 34824
188634 19899
477234 398044
24346 501905
367886 79316
666765 303441
850670 691650
248233 910796
786768 900649
203964 104517
438051 989433
656945 502805
705523 248886
910523 706870
228945 223775
497046 342673
746857 433060
452918 895240
322962 566890
129386 646874
755359 691686
895219 119799
318852 328798
756171 467312
691262 452632
512201 39219
184065 518118
233224 308459
562653 865495
427602 831004
218825 463181
124280 865819
144786 665797
711378 611913
840733 626856
512872 313182
984651 333826
447810 734947
173944 770954
666184 984529
945351 965220
701644 845663
4997 253771
845976 233825
890635 935478
104644 815143
805860 552699
318914 537350
965556 238894
144637 83518
527537 626963
189378 174083
64024 407580
159276 571972
234610 482578
203937 750640
516898 134483
443261 601999
143627 756973
119110 169617
184503 905804
602401 188843
661473 542270
70019 553053
263934 467185
904580 343451
890209 153795
980080 850863
213682 118442
591816 776245
810601 59177
701200 616666
183996 278147
198735 656516
14747 597576
910597 741227
15212 129741
751278 522630
293453 189313
607388 513099
522534 158506
700850 512868
258796 681752
99844 9880
785852 821431
29600 686123
109131 418191
308304 815990
611701 468070
651789 55471
934936 130150
597102 477803
383219 378148
522873 939953
224749 745754
671224 174121
198843 74986
457567 203475
502329 641640
805278 964953
362987 720931
526582 477178
880530 612673
924883 293386
402830 730596
88957 711592
671976 522026
721197 934610
19830 911510
865564 816807
134451 193873
716161 278915
372487 552742
825476 219449
412745 722142
403249 214530
642356 527241
40021 835521
596040 994957
467466 183404
612133 229001
20249 174446
412031 403301
9459 760801
885734 909635
99634 840986
741394 596396
775713 816128
64391 472580
174599 193353
423498 906201
357844 392697
621555 561824
169005 945276
393820 596599
606738 393503
846005 601541
119728 303164
343805 44938
278723 378359
397931 985565
263265 128798
199646 322949
626124 443075
811312 34503
756189 805880
119742 771138
985116 159136
463120 243024
815977 447229
929783 557078
965454 955036
501800 39399
323249 572547
54918 75303
736850 323283
119442 338029
731480 835665
318210 496894
476821 885351
403075 442976
541739 745405
717134 945331
472710 199028
780899 268497
821116 811767
189246 547825
383311 243653
124513 422310
984875 134545
840664 263382
816246 781073
54617 139579
502425 99568
213820 403048
383116 696228
805511 735895
780669 393141
5229 437127
856151 696095
273208 119854
816180 552655
507496 412856
468352 492170
184009 875781
924789 780956
766058 428480
746273 248650
915146 437415
109626 378120
865888 377733
845298 905279
347798 747121
871117 801145
398026 258654
581971 393719
691252 114657
144203 208582
944744 800691
816165 138984
860037 770746
537556 9465
710591 701266
571797 143688
284098 905238
352946 129334
491867 796038
307544 761488
243820 179564
298554 45278
139098 124660
866119 14161
929677 307953
786393 492432
347743 333303
139638 975303
283741 233896
751881 214023
502223 25327
911013 34828
721684 149685
40039 552030
293286 174001
79178 138995
328404 830600
974521 766664
403480 995460
984592 666597
920445 387631
228702 726639
895185 940133
522580 527419
263730 801591
472670 522703
602161 622548
487832 278347
805997 815879
462188 93749
800479 855284
223343 129359
159414 582232
964581 725668
741063 522729
129601 238683
815555 392693
477831 542179
442453 443462
691947 148422
467977 736544
591973 164290
253985 636858
68884 800398
74090 174349
89060 44887
109694 730476
472506 581708
438075 452623
815898 721609
422674 119861
218450 382882
865929 397945
577815 522159
964719 950969
144042 800903
970268 940197
423275 69846
586415 835997
815820 900534
715523 835551
368460 994456
209163 990090
263502 776326
10643 412291
354307 572715
114855 114504
164245 213154
622317 567061
905702 537428
94171 303323
209116 582213
413289 168583
393266 204268
965868 592055
184250 666219
965395 791014
711702 596916
501940 920049
800904 49993
373657 393749
413127 796370
328184 447869
826229 278330
727437 114639
846585 313417
905809 905146
746605 517791
776367 721840
826400 925363
711842 930022
128973 800636
706402 188998
930335 781211
183779 522419
164325 740927
34456 940432
885355 617670
746809 387748
740905 592384
333305 258686
870718 392718
562345 656876
174281 427372
198727 471947
546829 209286
831143 880038
830829 328104
183728 118970
189136 502042
89077 621964
935178 955523
273811 154172
577895 29562
979882 30105
526872 681663
338141 661237
542076 597206
910460 830897
54999 407647
412775 482183
343330 318619
551948 497994
686769 393070
905529 353035
497713 4430
308305 900072
393032 507415
571971 313610
143896 74976
790400 930607
248497 179452
622409 348360
253889 861258
428283 40446
362603 427810
894786 70375
591380 5423
114688 621904
950236 800860
258741 104805
895226 895456
885783 452915
513401 531159
158858 816354
567445 287550
740901 50382
9438 626490
472488 219299
616837 602624
677011 511672
353263 632341
596382 879901
581999 293194
845458 855615
955445 104276
492634 517396
890667 930388
119756 830742
467709 542460
517574 298768
447528 870657
885325 850829
402551 875840
154727 273651
747245 810593
716509 904961
955512 229161
482255 263207
194434 850753
104616 184209
725715 581737
392751 851092
421974 939982
517190 244466
417913 700895
154106 691669
766999 372618
83881 94103
537559 164791
646963 995345
796838 741451
741674 418144
955514 248408
746733 233274
765631 587079
517316 64916
507270 159095
194562 258433
298788 274068
99506 223801
521758 174652
309404 318047
447129 980106
940514 209047
343491 204009
208999 477586
994602 970293
104875 69868
184210 163990
129344 432678
228722 458247
547009 567341
626872 418245
542732 582672
129259 422685
965223 322807
632190 681302
627077 632451
711996 487662
44704 362950
785758 248595
9767 780678
746299 527831
826032 672127
393934 214286
59317 199074
970601 203997
492700 383139
44813 955390
173474 477740
493111 622007
432520 299261
671315 338755
467937 731009
632290 840923
189166 865568
104785 721620
970108 99845
875406 432511
338554 512676
322487 552311
29718 949739
616865 800641
253792 34435
124493 154500
447456 925202
278944 179162
477366 69921
94117 139895
915711 273570
168396 248439
213919 318813
815354 75500
611841 566739
243748 283235
84807 830583
174611 368305
886068 517012
686784 980398
407522 447524
387612 969902
796003 183779
737299 29854
869605 99413
417725 900372
532056 731929
701304 761769
218968 905613
159039 437786
432664 691682
617185 731450
462730 268889
920544 527765
39111 203382
735780 930657
975625 806269
949791 686233
606633 229294
298336 512330
334453 885735
597053 154088
831673 850610
219092 84265
989735 288345
661126 357786
890016 542908
667083 870787
408517 746819
119662 353496
806468 44270
970251 462537
786413 30045
74316 467520
377753 761808
760849 203805
249338 577395
795885 79246
602268 964753
64398 612011
801262 60045
810768 44454
194148 39465
537669 487014
616970 233965
581525 661372
552070 642253
671409 313366
781223 175177
492775 487412
930443 288448
989792 606535
746190 785926
582120 935123
413352 174590
830976 865463
532148 502913
268740 119799
680832 532658
352507 815501
89976 472525
791817 134955
65667 357805
581697 671656
352491 661279
756100 860788
15415 820730
550875 685885
139203 901033
746022 567140
955450 437885
616429 134123
413387 457679
353335 175106
308374 114351
566989 198789
980226 163820
74949 571304
388531 99506
348197 571863
10469 377963
239314 337982
542602 139839
542752 467898
428115 302666
552675 587002
965678 761319
672239 183750
238511 542130
587687 259152
656740 373174
755910 824887
148269 29286
775472 656256
642514 363389
989096 5174
496827 894472
631793 597820
577211 492263
701516 731445
855863 621555
129372 930129
925058 706504
671204 870421
542697 488076
984750 248686
448147 696763
278298 651367
745631 954859
825711 651389
358071 333113
940519 626855
766823 482281
50021 228664
397781 471959
328113 109557
786366 104040
722081 517198
213561 631846
199747 153874
795757 83991
572200 193564
119950 318457
552610 920228
462748 288569
730808 621903
342882 218940
169489 880616
209065 368158
39528 631698
661481 705550
791063 676083
592485 621434
298443 537353
959079 651812
358175 263845
109599 861188
517165 611370
482653 870792
711584 214245
144141 437889
686899 417905
820315 840853
532108 333563
228099 34566
293457 343595
19325 691471
34905 382926
926052 402757
14906 930836
70254 139419
20429 841070
696026 313300
900035 50610
179838 74518
551651 994486
835332 885386
243900 567101
299379 90326
25173 835471
940397 975191
850485 830964
403536 522066
487889 502314
507640 745872
129491 358084
378336 457339
641726 39958
497074 954956
372513 880280
796045 971269
900148 422957
368005 651254
477708 229405
621637 279270
467683 721884
44929 696882
44551 601164
283758 507008
711661 144297
502627 423181
730225 677511
994859 29445
532075 304127
438216 323148
651989 621591
527394 333511
642495 289320
571532 368199
905817 154262
562504 39536
846149 800865
541950 701312
398383 990053
984584 661844
871025 238787
716540 965558
741142 845780
895569 815699
567447 507223
467653 676695
846277 457704
522884 462920
443094 412787
437768 577674
791005 691706
945447 437781
910702 601954
209397 785340
522234 253747
318105 318629
421995 990736
537642 701505
915835 34084
54004 273840
825333 487954
129477 637164
566672 129327
612620 278815
124849 198908
433062 966021
24819 786559
392735 776509
531833 686455
134395 158985
681816 805930
119280 89094
672142 576567
352474 533018
373667 517968
383029 482392
860944 407924
144135 785710
55075 134538
84619 825615
49493 317843
910767 323415
731299 347873
204077 756353
124685 805853
596993 671702
288582 437993
492180 616181
313689 123825
780630 14632
795477 383263
198223 139424
363137 103899
497591 318725
214062 268069
422621 467710
129265 104125
159426 487544
980187 233453
193432 979152
651222 29038
248153 881105
657361 427902
438241 681537
587052 55122
402863 263360
25333 492423
164451 557412
477687 268949
990367 487965
173963 994617
880811 969764
168621 667092
273754 721399
198441 248789
413026 885563
288923 577463
304396 611312
960633 19472
641460 621740
521641 970722
278589 572624
561974 676200
542440 453225
765771 348586
795863 522949
517308 522893
362396 691069
930317 413450
492577 144488
318730 50176
735665 159512
322968 995340
492523 687466
731341 815899
786540 412107
875409 84538
223543 244007
567652 35764
452244 79075
323619 537418
721674 64723
418837 512680
194075 900805
423000 398074
448111 199307
149378 950002
691363 835570
801072 178072
910075 592648
218584 139250
628175 596066
293595 627082
905739 790658
935475 791028
492156 388419
313315 516853
866209 576932
318320 193970
94531 198896
338397 870290
348417 563125
720885 557011
19511 741196
139396 25205
19317 800405
378993 955019
900755 273125
512455 15362
735446 83993
810309 770969
413065 508149
636472 920733
965739 775315
328706 30230
44759 368830
775776 895480
895208 512395
691679 228764
706767 592340
726835 586687
686316 756366
417808 995365
179977 457686
50149 806106
104582 641554
183816 184479
696345 472367
114441 636399
845737 557830
790301 805459
979871 472243
238921 770686
273408 771722
656592 512744
726384 666121
929715 453183
83396 980289
686428 65791
920427 109940
492096 323020
303369 626428
561637 537626
960427 686433
666160 621713
790727 79975
129150 661507
865478 850234
487639 204098
387937 806225
328312 39935
965372 910372
244006 920756
198806 129667
239078 572531
896499 288810
820333 153957
790631 755919
183604 194143
352821 880958
841200 293144
626892 830712
755781 626365
656826 835339
298576 342681
924757 193730
955115 989166
641422 900383
433230 372891
208747 497275
617330 860684
840221 145160
761155 950037
184193 168653
487694 696026
84183 876184
945519 935677
512666 557455
815453 208832
681424 681776
622679 293610
344043 795808
974762 861034
497413 268566
423262 800458
531879 313282
432499 159704
199171 437638
408210 149252
79917 747065
268494 870186
258764 263380
671891 671337
173560 437691
770789 492708
333326 263386
487508 362891
233115 64752
427251 791407
194003 83752
239347 462962
214217 413262
885581 94585
592104 904661
551657 895396
721658 960253
721645 273575
880086 656610
268200 766340
527372 383352
591688 338813
100092 860765
29209 259527
483236 243407
691767 856138
487679 293657
249386 433271
323464 343705
949999 531937
442871 721348
522452 293013
675856 28934
34686 392962
960835 587044
497387 15243
213870 542578
398004 591884
308435 492870
387745 59143
418214 989692
159280 198662
333095 143900
403139 89728
995177 671778
906009 283844
945467 517343
984965 123888
289045 884767
74290 696498
761096 975376
338094 352827
666373 353097
84406 974941
939920 989441
861192 825530
194132 423427
572330 746606
308146 148839
313189 442876
308308 53710
671593 193958
587119 825882
179719 228682
841089 437623
925487 751670
258878 487107
269498 661817
268526 213042
34946 348490
826097 273711
801219 825838
233887 636500
632010 851046
153879 40062
29637 860971
423031 129282
25064 771395
39784 154037
541631 954908
840594 606800
84514 79457
551686 393493
576345 547614
557889 442916
935669 745791
109424 163948
263628 984653
612107 980618
188937 228497
417803 173832
188162 666547
985526 214306
392825 94599
969909 721324
427905 139215
169285 323117
427513 632127
980740 169065
233268 606638
452344 363145
55036 501951
681882 478241
711491 646999
636732 806236
567002 248865
124410 801300
685756 577586
9434 154426
945089 731583
586546 805888
113631 402817
338763 248491
297951 328570
327566 69675
900299 79423
860895 667261
566715 502695
875464 9846
900774 214250
233915 392699
497394 706960
49551 467851
134029 975124
298757 770830
10379 687047
875531 791223
428157 387015
796541 640975
362990 621971
522656 502327
378227 646906
646577 581910
219216 388475
139886 110184
517416 671157
518144 333952
775759 512784
915328 702216
487838 835299
507334 971153
303818 83816
333433 671947
994864 726004
885030 467343
29142 567492
502197 368882
139085 731261
547052 776867
875335 427517
925894 334105
323207 597559
855303 164183
209096 876533
567958 516259
656602 905406
721616 377788
596894 99697
631480 666356
657338 616561
566886 457625
492902 895465
119746 184101
597042 919856
925780 950246
850482 85443
84615 238464
29824 716381
183745 467842
701492 283036
367958 109456
984512 607119
392799 860509
546562 716945
820581 920764
64618 776350
229213 94573
756614 407918
492997 248178
989580 511755
463116 760681
223585 831096
602263 49402
363036 651335
442730 611383
273826 915688
348241 432856
272706 920117
527176 233404
50084 561690
636862 324628
885592 810780
333739 676864
278318 54268
208788 119312
537730 347858
881280 258753
646185 104913
358381 587353
835834 706941
446980 890735
134597 244369
427728 856288
636565 970012
512861 791032
24474 258404
607160 870502
766162 895342
507425 731107
706527 975000
890688 248511
377829 163690
611857 258537
34856 14327
567027 930941
945693 487392
507316 920017
806515 586783
159278 676102
666747 527268
741749 716276
238547 517495
253870 89247
885062 558050
99577 911128
327930 641818
49165 297740
904863 134537
188751 452220
422970 258955
761680 557360
512383 706531
681784 114105
716637 811197
20095 89271
462440 592011
721770 771641
248986 592017
676816 467630
244566 24942
935791 9582
273674 631658
805492 726190
94835 472565
482071 667618
632300 358121
706086 934746
930130 692307
552463 189178
979013 926012
198976 134657
985051 59563
616818 855318
821294 50104
537074 841122
806008 129465
204047 531798
895192 899888
184756 458112
367827 975450
980311 826562
581990 522247
556791 303227
387742 407521
79665 969563
244049 204102
735922 557157
990383 562223
736577 353320
119599 4479
10228 994874
312640 965492
611526 423271
770906 786278
372502 939914
378247 323483
4745 686542
909793 650995
10465 293456
701541 910719
850508 438009
796189 617425
507805 387153
577109 960260
566924 974366
333067 34922
871237 293970
214563 521842
915343 795718
940649 94504
740938 397741
617314 259116
701881 224080
567222 945180
344076 651788
541769 35002
601835 124126
40089 507650
666152 209140
422990 960278
69537 930445
497243 547774
199591 915846
766628 303908
691474 994531
34869 358085
348186 25236
402974 25033
95194 925822
930076 865502
621303 124203
114587 561672
756711 497523
513129 612148
537305 452930
65393 19657
721366 716401
935345 711017
293346 915273
318107 128721
572809 403141
662195 581890
129295 203727
765537 885254
129573 532230
537940 980429
915758 363388
233095 472651
522840 407867
880427 35587
995981 612065
836461 551819
264157 84568
298712 367957
596507 975268
64533 885204
462439 866153
242918 536929
25285 796288
577648 930021
497677 915437
512162 189399
850630 164252
870677 488047
173811 253788
447809 472372
422812 637181
781219 428543
571892 667445
283666 761024
975133 75179
621845 929813
502579 755966
641805 830808
233340 377892
865786 64258
20091 502341
273977 20301
606627 477335
234017 219514
926183 119119
896240 417886
945588 636247
134445 273961
377930 133948
174766 248500
891018 293418
452469 423081
617383 865519
548288 821024
219133 701339
64342 308121
541620 398144
124730 954876
328324 497744
855370 343104
293733 253566
358459 164348
149427 507850
975643 387669
532195 642198
621760 721515
84469 761369
278861 259022
770827 348159
985291 25428
49492 557589
741278 59424
955542 244019
542222 825757
592410 546749
552075 518350
308551 422744
154206 239017
924833 636942
218923 29771
930125 885499
690874 701602
173405 183545
422411 720987
159759 890390
114924 835164
103859 671506
19722 795954
513196 566481
219301 925218
248461 442762
84984 382668
279392 790634
597188 825998
437828 80318
24777 194048
333623 279547
432870 388475
676633 761290
965661 313656
388597 820792
387817 333031
139311 542068
203827 214163
572384 970160
407873 442982
298291 378091
168634 934542
666230 880351
970276 686301
930233 990236
945509 616602
651966 5315
393999 373208
482507 820822
576961 541959
900299 233984
169649 94866
377806 656051
576664 910585
224174 900217
567684 188958
677125 726579
616853 577550
527707 781211
185213 646307
566822 274233
184060 248870
422140 223845
105120 597424
934831 835908
879771 243883
935376 701997
755879 352884
651033 746661
964728 154153
338811 134814
870401 159595
402004 148975
606451 348425
696369 507346
841068 497668
696869 362634
905968 632054
930184 298448
338526 755946
761223 353115
512511 850998
641078 666921
471731 602198
233923 397653
895753 995448
721511 765885
796076 727011
736438 163881
383330 94912
945401 65124
373006 676807
661481 781551
174653 776548
875692 606571
647133 467540
642053 179404
188843 462207
428590 536700
581323 373202
567501 367670
258412 551904
100138 871740
382738 284081
168760 720899
357994 278320
214629 945148
437734 482545
298078 910225
587006 169200
935345 646879
388034 696660
293477 491835
319113 79431
960383 775756
601829 491916
506939 791760
925098 561975
576939 163936
801341 661971
542442 552310
448106 741494
65131 467928
214193 158940
925509 826189
766484 138643
437538 641981
776267 870921
561257 670785
78932 149154
15141 631910
392958 512670
656389 124021
352587 720788
925420 851234
284060 552231
154323 626429
398477 482353
427644 447637
363120 552743
333108 79053
929909 184529
443275 706520
402078 805560
319191 865783
786771 34242
148649 621673
124047 353590
964858 39518
268134 681460
631145 338080
497528 831188
149620 905209
776469 100236
243683 208876
377850 909688
890609 144276
721395 293453
482536 860364
875618 746665
99638 322677
696660 24824
89360 611766
447806 686634
766594 467664
39779 617490
139991 904395
755978 939996
333396 69786
492423 412641
627351 677035
955646 542453
94235 910750
54545 244192
904519 123977
765624 184148
686405 179438
716273 228865
174010 30113
293510 477602
432514 55342
910142 547274
144063 631537
49194 149230
621548 856587
467636 318174
671913 806328
946076 695775
547476 49507
183887 870241
303347 477848
507405 149295
855945 15079
935335 681887
686695 468222
940454 875241
198454 123819
239405 328881
178678 537624
74981 731394
855447 627249
641800 498197
49349 990032
313715 154833
189091 377480
463173 502042
577535 264097
710793 208793
950739 323280
39987 372052
607142 646872
383229 513114
268712 318639
54719 432837
368542 308044
218490 209065
372976 442363
919964 24579
700927 492356
108950 451863
970636 989681
577367 83451
965096 781565
622626 810789
149083 805522
358291 188647
516768 199073
592253 582315
418254 308429
343568 294047
631756 309139
904968 273143
770851 25011
174989 513024
453320 462582
736925 412867
969675 711734
587246 970310
955254 214177
204448 811031
94296 110040
213789 526770
756360 924967
566836 208349
651308 881506
980055 592233
307711 472703
596158 244392
880071 368368
751702 383784
522503 198543
696003 721262
98716 815953
542679 408294
616710 761065
616926 318681
611933 786536
642208 871127
607260 422300
677169 298393
103270 572981
860732 696005
144245 219424
557112 572073
308300 870238
19759 377675
199178 173936
213703 940388
218918 179165
89106 214166
846222 661600
432105 29611
835595 368468
69702 253903
567505 690857
994984 631155
318293 244317
706081 755448
691827 861526
995650 980528
158864 641750
114612 442245
378332 707064
204678 522492
860849 208859
656652 134651
25077 373328
592255 198733
49881 870482
368245 288841
149375 264564
622511 487627
69128 969534
701905 25067
536776 293333
656271 80017
482697 716808
845435 750859
586603 497590
995948 944931
437501 168368
183400 427708
343323 29388
612176 950655
243822 492449
786444 352700
785369 467565
780708 442587
542461 342914
99017 979585
637080 820698
438195 696207
182794 40539
751491 373250
796145 423039
621221 761478
960344 333873
298591 731035
845803 119262
790463 278859
120112 696522
577307 144437
183651 213809
975657 696512
697265 462778
139527 94226
104920 477175
636789 621719
517508 323095
119694 104381
940254 288503
238483 671587
532359 283502
751150 258704
517511 403536
651104 403087
607338 288814
179004 487286
34599 262951
223867 69596
835681 312417
910304 581724
661595 194298
392879 592376
338476 687388
223895 959590
726536 129129
824956 413327
994937 720560
258600 640974
641679 771846
327964 218910
541811 910526
980176 273530
800227 472799
552518 911071
900164 94734
248783 508263
631894 15327
478079 905105
159794 74998
616967 473129
621886 954900
283446 527632
163993 24817
60168 969786
511972 302712
875800 925572
632038 820852
95321 715885
826365 288436
178579 611896
800896 790795
945113 150213
413167 114397
149985 258718
104136 701300
697100 830359
188498 69015
522422 402386
453138 383284
816673 283906
890396 840360
970306 656241
725819 940101
756156 427532
402862 452750
621392 979380
960773 392654
736288 492174
825836 308351
681705 502471
696206 855911
263019 880547
338220 770901
810396 4783
412974 557099
995918 193361
950329 40323
930447 342537
552138 313630
483000 930406
248925 790636
995090 920041
761250 34461
392391 124153
721180 512766
652075 840573
671854 716759
537411 511988
980367 214100
213877 532287
736146 681385
373042 513749
65394 840635
854593 781374
373020 816290
63883 89846
363266 716045
766657 40392
839557 676316
706373 781195
239171 856020
497783 656023
238742 403545
980484 64086
143960 159248
775632 676566
74416 448190
164787 119337
756156 94439
781510 954683
532415 949919
771375 95273
174194 904916
447497 84017
298991 248957
672010 154468
676751 502834
616956 34693
771426 507464
173836 149259
990363 24503
378243 154767
403011 715926
10223 318589
209096 432617
258167 572069
133596 596373
174254 606750
880280 859883
378430 860165
955562 128884
696592 453180
263498 447493
521855 810965
726764 815507
84917 328820
791345 204091
508153 119353
437815 458105
885431 865704
890477 740660
233150 731023
268411 452153
557442 468458
423188 124677
721084 34768
428378 890602
567162 596833
761111 965440
173141 711525
44061 880603
458303 482782
109913 626963
319174 432881
323511 697236
133178 408848
94997 164525
343293 586888
24953 244628
960196 756190
40032 771341
721132 666862
288293 532301
866439 11010
711867 149802
795464 104700
388396 770868
254388 989736
750682 526612
985365 308078
641673 726306
502211 287696
69510 218245
905349 472729
328105 606672
950021 457508
84717 34739
820872 949613
737389 148542
481912 407673
79657 457996
939677 871107
124562 244043
567633 337777
120066 154717
929794 796469
890750 55152
59930 59181
362711 29895
398317 617230
363041 109072
716396 124179
736738 403187
39975 795596
721421 916002
64668 337982
721624 4300
756951 676447
875776 900708
781408 691716
826118 775751
452615 139153
238918 677016
577693 227851
35300 686528
671807 825876
805745 318126
283777 831499
233520 830939
253101 124735
751465 621711
835885 264538
293716 686514
830972 383242
174529 686721
24815 781184
29456 527218
825727 497832
616545 442600
826995 338922
770781 408252
377392 448294
786051 463332
899849 955527
602259 850692
910202 477029
238837 44312
378315 462766
338723 388045
641991 791411
338481 24276
676704 876002
104758 860967
557506 368160
695977 338762
576996 710641
552201 408383
537177 551376
840931 427750
602521 328397
69892 458026
821009 352292
487761 79786
810740 865591
129675 980200
612178 124982
333506 233654
915015 119297
487589 74226
621906 751371
641981 34757
109242 701172
797091 333267
640997 990405
104874 239254
672009 149331
940749 462392
34644 696865
64519 268411
919860 174372
238487 900898
312638 591277
432768 278485
881104 268613
358283 786262
925577 79541
253598 129421
372990 974999
532706 69991
458110 273107
342645 641845
4480 363178
238461 129377
403650 651262
876016 134109
169521 567631
790675 517617
422718 831098
849670 183452
979998 681777
149420 990173
970210 770706
865899 662022
14546 502717
710732 767462
631527 945242
308491 925835
940103 79080
268412 606920
65001 164806
901087 855815
124389 273560
516893 144448
750792 110358
726485 298244
154065 363261
731552 801639
970050 327619
616397 910460
348297 64513
726407 348976
536623 59887
451981 914959
934982 676559
193768 19773
233865 865368
199226 552784
666975 577629
821356 731630
796200 318504
860283 587451
274085 562605
959911 69527
880348 497187
303342 303204
960799 502877
653065 601854
801128 462608
283275 562772
577148 735700
477410 74968
278692 666112
796467 810735
129716 815468
811051 900046
835847 398306
263758 612472
566831 572343
994971 338121
627595 308751
716231 368336
632039 860877
79676 546919
920831 691434
632504 980324
462578 597003
308331 800652
695952 139536
343353 680902
164436 418437
100654 447350
781050 253323
656206 228637
99577 950329
721432 886117
164731 666496
571310 149094
482446 850373
637086 363365
342892 134464
443035 980430
342744 964566
561538 392489
686169 537150
308362 438224
621510 940860
522269 288883
447661 328586
258341 298710
711247 696378
979352 293574
63970 497683
149572 721604
980017 780585
407325 622140
532096 253377
298280 34891
725720 278547
109310 721211
826198 920853
298814 636199
572187 626771
980267 428363
278052 596960
626518 755732
741484 99275
304187 532228
462536 398244
457248 840493
328214 965770
980393 621963
835929 702018
80104 392474
164337 363019
651598 94819
562745 428019
362745 328182
139044 954795
721161 10308
607399 417614
756407 964853
661968 223418
612613 851044
244016 347904
84574 904847
641684 392934
492709 198725
110209 184513
532581 895927
378373 84596
557997 452512
626755 34842
930213 775886
487018 302563
179084 159466
85306 199069
945294 254303
691339 831829
203783 393386
990282 30427
602608 138926
54723 801043
84568 721839
418283 313553
546717 546843
746390 671635
4786 875197
477489 711699
20026 447999
850933 944522
347393 343239
15161 970456
666072 433359
954986 333713
452558 722095
224104 278907
123903 622381
975376 10225
722044 806420
49943 830753
50017 627021
333423 870579
372582 711707
318917 731367
891162 626204
532613 930272
910342 532429
725837 954847
801021 507280
894753 934736
179642 840822
954675 154111
209647 278713
940069 915386
591732 984912
173935 80444
70112 189470
532386 890691
412697 427694
164267 546709
208504 647381
204392 840434
765532 497798
398029 900898
930656 129141
15173 885979
567155 567592
601622 149508
174203 556206
20015 890396
656352 75265
174764 54447
537223 756172
388836 507545
283927 153983
706508 174166
895175 407718
19123 104370
313528 502572
79315 413033
274043 347935
378084 378805
432949 437700
224057 208743
418054 283433
114894 820734
213678 626657
581578 427451
521879 413041
183569 547578
686176 254220
258885 54588
153586 894888
29329 502267
830919 631775
273686 805922
790510 646618
851136 612071
149529 243635
970726 119371
811013 780751
124006 477229
408141 855175
308621 740890
766120 522646
562202 831273
706187 149132
890308 194464
39931 820576
646789 194289
526701 328519
74967 492639
696762 821099
363164 204564
820656 487794
989864 990292
468221 503048
541605 845983
781796 298611
243563 239202
24620 681952
507051 591856
885226 592246
457848 691833
915425 562916
143977 696908
40358 124145
810642 319176
438629 746818
448585 581505
712014 875302
457350 184407
691055 458147
845496 283945
468115 24480
741325 994740
910501 259258
741412 74105
338754 930318
74215 288587
919844 785667
795606 916128
891047 855264
4715 820982
810666 367838
353421 486925
860703 706697
372685 209383
145202 587307
178915 566823
486645 135122
990384 980228
79452 308507
234411 556378
567304 697060
522046 362870
507448 468012
214566 810615
278843 642088
920633 45216
979475 736281
989135 99959
551688 284167
756039 647333
461980 174631
422567 418187
875695 283888
959379 362902
507497 561849
79514 716651
105437 442064
413056 343146
647357 5466
228635 770687
955111 800506
88691 866145
606777 726670
134391 168468
577166 617010
516572 452399
741012 422888
735946 313005
14762 84540
751453 914895
294133 612667
5086 204098
556743 283352
492120 84306
637126 597092
696476 144699
19622 214349
810672 462999
577844 388208
94476 49982
402199 313155
885775 795530
133871 403232
249268 218925
526307 622231
328358 602393
223776 184312
50264 920740
511991 29873
168527 899894
820711 188522
123666 746257
40298 875600
522307 641452
861314 851007
562130 919581
606926 109194
561860 571220
482571 447771
393230 611655
248075 398547
104293 984793
448069 776167
542517 880071
830369 248193
796173 895456
656072 253583
258906 965365
647107 955740
735942 790976
29925 134211
273652 666992
587166 278742
531977 582154
746296 915261
189198 611974
944944 104490
815707 174366
198311 945311
4263 536908
452150 110137
755676 377842
476815 771027
179126 413365
15054 561147
337964 9634
64159 124459
940170 944919
672585 547072
30106 179592
766042 363893
109262 502729
755875 491907
781091 114252
866357 984844
219262 308343
239040 407893
527816 50087
523667 532940
875571 383400
874533 651313
109345 59849
845620 388766
448049 44235
826182 915852
243905 268508
532774 874942
387858 894718
621332 238380
915358 731694
433883 244390
964718 572367
795839 711095
298183 259235
313979 845385
34399 293116
114710 89905
29753 55512
9382 591976
218566 64672
995136 482961
632037 587029
776461 357472
432497 338579
114456 711404
671649 761466
881167 551929
910750 611248
9659 283638
447824 935270
612101 696043
761324 641454
974718 462623
502358 548067
890387 423648
652317 905545
562609 760975
686674 133492
975238 726090
925474 830444
189032 492856
562254 944971
661564 148688
641347 133820
751270 80068
791058 120136
666632 542075
29727 851051
965368 750289
566773 806198
577388 681047
834916 39915
611094 711819
492760 721781
114289 771388
93856 348789
626970 413050
582350 776059
835453 965222
770609 50347
377505 636495
35351 840569
407524 174333
725830 248824
652523 49914
238378 746213
427497 357598
338640 452656
269184 875737
716311 497475
193855 287634
457632 64468
616504 790928
4786 393241
771047 841196
621477 264438
189009 362580
721686 820351
99560 984913
19476 74439
994269 700765
572168 59674
716367 318645
731669 447936
418368 208649
920001 652161
621632 970244
348276 687119
492504 467752
44748 622301
984496 239246
298697 517599
871249 308336
74838 985397
298457 278729
358479 367815
307812 682153
353376 647400
372492 715932
169490 428035
462052 716420
308316 498174
537090 4911
64837 402560
980622 805844
681722 930209
587194 865556
59723 776138
825732 810918
661944 95259
627248 258617
50099 15020
706306 651487
512219 587169
970559 965115
810592 84672
139275 233581
536774 274137
486848 442039
836184 393072
452834 94657
755954 208174
234076 805628
338627 30191
631565 446889
397753 10661
10143 905443
840265 114337
542368 815787
845537 44828
322628 780526
204293 273774
35509 597643
924952 353176
587183 930834
214258 233413
228316 582018
621333 29580
502316 129157
114368 721862
224435 74279
806023 29489
298452 313783
129144 318334
442702 702319
238281 651003
263633 109797
920492 273425
163883 542690
303499 263872
173773 617402
831247 94367
896100 153683
511939 218466
393817 313955
373074 686479
895628 552193
950570 631884
910534 910437
358322 10008
616600 960177
25010 179191
890332 477992
158656 457975
382899 363944
586482 124715
79707 283406
199223 89524
821178 801124
855162 920372
557565 10619
870269 148801
910122 496793
287994 149344
960352 228063
363177 766202
871155 263567
492839 493150
318532 144213
820404 865584
159097 134164
621631 775744
502418 408583
662409 617106
482042 55045
462187 213597
795650 672570
279079 836006
765741 805754
781305 826577
492573 94499
935653 228756
746399 90075
581578 402795
437396 571784
979885 994855
755858 587405
730952 537428
348237 736340
218649 188679
438179 353181
935873 432651
601285 795736
80342 304357
278069 979402
4676 403391
726890 631429
860600 861656
327410 646730
517939 268160
571749 606744
994503 785729
840470 55122
292937 701966
457543 716226
148964 919881
294145 741075
382715 258853
616300 895595
408344 741448
706197 616979
472084 338737
577333 403180
571997 159000
755943 29411
955271 204496
417855 84742
45026 14770
44110 169170
607109 154590
561849 387601
40216 288705
159192 707115
816102 726143
820904 562405
949981 870168
39297 845561
477483 278388
955717 74629
9998 691357
502777 333043
263527 532375
507419 422732
731006 885774
751258 875459
63970 766227
427574 960278
731488 765483
841283 258004
124736 482904
766288 69394
572357 412411
462949 447297
278367 139387
229693 134464
193803 820172
596668 721640
760704 696189
84299 632023
576122 551823
816156 223179
940684 681219
482421 955407
14859 979957
880475 313294
959633 626374
541791 44987
736042 54254
596159 174502
89159 830716
328398 249107
914512 601801
427428 492801
895461 586966
840293 985086
168856 911105
756296 562294
542217 945554
501953 750695
164775 975317
964652 816255
75071 651672
149170 660848
835207 492557
14983 288486
885099 860156
144152 338510
716459 969750
34233 586804
577031 572057
875284 954447
875928 44965
139343 412514
109417 462720
830495 239096
427695 566874
258307 24031
492246 596490
774953 20101
143909 289101
692523 750942
622028 905149
329051 721673
820450 139213
298592 995213
423080 74897
263463 860144
835801 208653
79501 741052
188603 393196
518165 766111
4644 590830
621956 578107
15379 159751
826160 228629
785873 5483
850484 482724
661573 577513
731693 830083
432828 666413
556606 911184
681269 174142
612029 507220
547143 373529
910517 54347
895511 502824
657251 105401
865786 309067
576515 825972
189355 248240
700558 39665
29704 831416
462369 463309
577138 452555
920781 298549
860637 830546
776260 631906
795864 447752
34282 134908
980541 766064
736495 9994
804959 19372
820758 775777
303862 64368
413219 980062
79517 532364
59792 39515
358414 994966
193539 557750
701743 303387
219917 357742
472693 920051
627613 820456
29877 413198
870140 851300
750659 209213
881263 214005
437326 870588
174124 139236
238661 239082
303953 408049
985137 746651
890463 30426
930136 34956
412279 736208
64065 725718
418677 437197
830720 736183
263562 537106
587580 457834
721547 104101
173260 955173
984852 597369
234089 711154
820528 243216
174572 163662
278127 512358
900391 865662
576793 662341
566966 462145
99660 442429
9986 453196
50239 338560
372924 696621
945132 54991
393389 194055
114628 662193
522093 34890
223985 239167
840602 636901
328550 910130
970190 810521
273997 780483
860675 163912
681433 88885
825616 30393
984775 458462
716192 452169
492569 979982
427681 427633
30493 521946
462609 138900
188533 557420
805874 701642
731614 29011
178594 34383
104520 557084
427732 756239
935658 363385
681909 363269
926109 64813
374127 785799
870156 502724
641649 487698
920163 155040
572461 711602
606595 532765
403420 532032
457431 35169
368286 48911
388049 173796
964472 657182
34175 914514
855328 39806
109148 925976
228414 677319
657040 288996
54109 79494
741113 751315
492169 168960
10417 552129
636539 865217
647244 443121
805448 895559
249482 866565
288451 154004
119871 666192
154794 910427
973993 885347
299448 174069
59226 964546
392942 402482
687543 761415
203860 74356
10638 616883
547253 89295
965712 288502
258166 327646
725689 422890
796709 652177
771022 274185
617278 940187
786852 756459
427589 318824
781349 368366
407072 418394
651605 74279
317946 959973
263081 637313
39127 850860
672097 526825
696267 989568
712472 288277
372904 134619
437338 492992
442608 453141
606653 930213
79956 254061
721113 656989
29893 447301
557567 213883
244130 641539
492639 556983
467496 880201
259411 58885
318495 796179
447972 552681
358126 616749
994750 731380
9959 143092
661400 119108
647063 831326
308085 263507
165053 438132
865752 467364
294065 338362
313949 278434
840581 964997
860761 308369
45747 716882
547981 830601
5431 114431
889928 130021
15810 487171
691478 656030
74790 198746
20071 457377
949648 363030
178736 964550
980404 5108
690661 666799
885664 562458
233480 304107
666452 820875
243284 34524
59947 273570
402937 324459
104220 661798
785746 880753
134032 880531
109698 885716
995348 757031
15464 557115
716614 949696
108866 507126
164350 204086
845316 537479
263638 213627
224751 228690
100330 352282
398283 512946
188473 646912
114640 110037
641434 189616
854640 845688
44701 656875
637074 472226
69489 726819
541953 338074
781058 413217
885013 208826
517062 736088
283229 979533
854864 298481
547493 761175
527536 756631
372449 796371
228980 45356
377816 503212
909891 417580
596689 54911
164197 507208
54913 358424
309126 249148
935889 696216
19721 914971
731255 686611
706341 458186
238873 596530
44881 939647
562050 626586
402761 741247
174495 69620
343849 168337
686525 835826
486566 288575
298405 557027
870516 805719
99255 587228
666576 806060
875286 178325
562529 532233
422232 318194
263838 442977
338655 640950
417055 616482
313566 288957
382623 30329
681744 492567
791659 100183
10201 865941
631152 810996
104918 472606
740890 54697
736836 134432
965146 457884
284248 910621
383153 602534
905959 532279
636322 876061
343528 546867
736132 393304
502520 716260
363546 711247
616568 825979
905590 476836
75546 855541
900647 989393
672229 44884
277683 880730
950176 482024
20370 706075
273670 775798
24459 119551
432793 945351
880397 179329
388405 19942
148804 284147
467378 960425
258628 700761
821316 721042
701974 632319
910545 467770
652205 796028
661459 905429
801298 547820
786043 477385
890284 810699
756073 885860
691850 487695
129794 179199
701621 347327
537904 781759
20295 546107
755869 547373
800592 114053
737086 960458
656157 900960
54879 532922
49545 358601
223944 810775
507923 258196
557604 567104
751521 547395
930036 701538
203618 297999
4645 840762
447751 288848
115137 422489
776153 477271
840466 960103
685854 209322
338387 741339
611625 492585
397364 760897
84327 735605
855270 945176
462800 611697
457660 949940
4738 631753
9694 666744
208686 757051
949864 845495
24466 860059
54720 263889
642457 935087
736184 208704
74726 880354
109133 224316
59299 632142
452265 273062
537611 283875
711583 382931
452692 994284
597086 925163
890684 333621
666766 592194
384184 941149
119205 228795
353357 801134
288193 572057
621851 179850
597556 378098
54267 965559
418123 154229
572199 562017
796552 497557
586745 790298
477480 622154
84654 174287
965018 383313
875873 965767
5325 836003
109849 636338
651629 362504
293924 756445
745931 392149
541696 164292
318117 289060
446935 139670
442385 806303
298726 875708
84538 447670
581865 602184
945190 820416
851157 238812
612343 288037
477592 477802
512256 497436
751316 282918
511571 55287
935283 183577
248961 970233
213724 900210
188828 268499
661577 526812
771108 920703
691338 820458
671656 652009
681351 811094
741179 890848
636956 523023
179610 5142
950258 203894
511745 501771
437827 412849
289189 194075
294140 775919
408635 163433
651849 656669
835692 840850
502199 562080
273707 875397
596869 950338
392831 626645
646705 303553
24989 567703
965831 368103
626562 512920
244240 129327
189484 632002
124852 751669
5266 44132
592530 457269
44660 846010
433843 413448
74533 701762
536764 188880
746972 890564
601910 303525
661393 796382
154388 184412
835649 879971
890433 307737
682021 746104
795408 328687
4710 30127
855810 94527
462231 412835
34028 338032
611649 824903
532669 159669
532802 541933
367950 945446
567390 487829
676518 358756
652033 134357
851059 950586
408477 751561
641867 637775
158982 393488
54936 34181
930918 661890
34472 735718
944586 462631
905608 980756
885914 894951
243552 985976
298218 298647
716710 532199
100072 801380
841329 551319
158919 935281
527322 348310
731391 691782
741649 686424
159655 850762
736187 646914
363101 970305
770796 174304
915052 661691
288870 69760
765947 925149
362645 905399
741390 646885
523065 865513
298827 572535
169711 203770
408195 9111
870125 766049
64466 84278
706553 19967
959619 203829
467837 756817
964489 840785
407444 512192
471947 965810
646938 705971
775979 34635
895948 422448
851052 815238
461930 556701
840826 408526
656998 398194
617373 617992
298201 63922
139020 667168
800893 468275
582550 348065
960379 860339
457577 84798
517465 353254
34912 432148
676410 163579
587117 626901
781157 457249
188939 188765
298153 666462
597249 527009
522049 248732
577287 408569
84430 984342
249314 915604
64090 289227
323859 368954
532404 184671
760679 602092
457229 860684
660272 458033
796217 249323
64981 880310
443098 438096
676014 601626
508265 870801
816693 368045
895941 115116
796222 4948
840986 522038
821361 945223
547641 855882
248697 596889
382879 850030
253329 24809
338843 154154
308683 532519
786081 631638
517518 905269
338625 935689
651773 457448
14963 870380
557215 492185
661888 775879
487209 318792
725631 855789
398205 706512
800825 154683
189666 44913
173871 915107
372750 776235
334051 482258
412288 243794
980192 497895
268222 615958
537433 985089
134905 557067
70606 990331
113801 254170
382720 274205
516749 208935
64470 871389
317623 373630
203669 293552
124508 432625
84405 751304
985536 611821
4890 417800
49816 223432
462685 836005
448148 129714
606578 820647
248890 900199
189565 10635
283668 542580
512974 780945
846510 711528
249112 611951
213674 4663
557523 54685
188683 979873
890205 721387
134871 601580
10758 955281
164880 219460
677062 820995
492487 308376
711675 656447
835734 15185
656498 870453
697136 382614
388227 930216
985029 840229
970085 25431
29401 427800
929889 706290
941285 781233
502716 84550
522441 269141
830274 651382
343394 979726
581476 492043
815483 69479
855743 393274
233791 905508
437289 522390
770930 686646
293582 423643
925974 522661
805356 716704
556876 546716
746067 522167
950037 964751
208993 69761
323599 402813
188457 960004
975365 522350
467975 94904
438492 955241
512367 561934
527554 601961
377750 353851
457382 332657
79418 782236
517735 697032
198800 84787
517355 751512
228784 468548
716314 472829
886514 178873
333348 64370
860147 268015
55006 59336
309418 362979
920722 846032
626384 209960
915473 621856
606916 621633
642096 377602
472846 432934
577991 189360
909991 447479
397938 666305
39587 746329
457782 103854
761443 134073
482731 687048
512676 935489
467585 796171
517289 288441
403276 298236
895416 661230
636934 885473
99262 487615
900496 119547
616237 711496
835829 621802
313658 358113
273632 428198
522408 890522
382532 139354
815537 308144
532187 189177
9761 846503
293381 438059
148640 675884
437628 960454
780773 661167
388399 64771
840406 298837
218759 546945
457491 40080
432417 705952
954961 328096
273814 313785
4308 680925
532423 308144
706543 627222
507345 272641
49912 133861
398562 293083
289015 393228
840915 40242
307889 30493
209082 427221
602541 239118
179454 894926
790890 796341
133953 830360
94288 741333
134419 482061
522950 686258
358614 989794
935373 795582
796094 835119
890596 761121
189199 911379
139327 980498
840744 173923
885284 190013
274656 15509
965447 870689
956027 224007
681708 39604
482600 188166
637471 855985
651528 283895
298248 865865
985021 631968
820530 74352
671766 945476
557790 109460
457036 915882
105187 382791
323501 194073
581280 925510
94209 935577
99664 492644
800895 835368
417377 79329
820964 233420
139712 114808
104392 990301
398185 602004
796456 601818
9720 273092
338325 273065
705932 477757
696710 44934
159209 790551
602089 636154
353761 621429
537824 975261
104124 637255
213584 299553
651626 318160
407935 398140
198395 860166
951190 188858
726179 135003
502825 895523
945732 343196
124570 338347
423536 815535
164602 189339
482435 69826
198975 268329
105124 940612
537570 790821
264116 120079
193852 471763
318618 423331
632009 626279
989732 508020
750937 457799
527575 318437
601695 681226
44736 925163
423613 836209
278213 432416
402455 582448
382718 791255
15632 751382
551838 751692
19706 671107
188683 721262
955724 558187
377581 402617
213227 417304
133651 293103
288918 472578
149652 786009
388082 542321
35308 233421
263519 163561
139119 78794
626822 372758
408215 547470
199419 845550
347338 317913
69495 747259
188732 143758
767632 532287
746546 184133
890438 735452
830675 919970
771771 740973
775957 223824
94497 59595
5303 954844
636312 283574
29886 856480
159382 542188
676885 243645
183274 626095
756119 34266
204106 796247
203904 576394
661582 54524
298600 412673
342733 378041
626862 497004
327361 393192
766718 393842
169037 940662
830827 508314
541901 114981
393012 661807
437802 880455
134365 766450
969623 576614
119719 626916
517333 945945
323217 90179
970335 914330
34886 876044
870011 895814
204091 263571
765979 650972
224296 368487
890930 905273
468636 706568
945865 289065
477227 637369
83808 755820
184242 149662
39726 79488
577019 811154
820229 651552
954554 826071
163669 676971
810853 915193
138969 463088
890981 715753
229065 497421
368371 930753
234407 690305
337861 462930
722530 721179
835619 35321
387595 403089
652144 488127
951111 154032
29077 795614
825832 198435
84470 955383
309024 805407
427839 60084
657079 89712
751344 641546
109098 760804
667020 194110
622258 537263
223466 113983
924737 198641
706435 373719
74273 24964
572172 661554
526943 969601
15958 711144
542007 770814
780864 536737
55194 940357
735244 34697
581498 592375
696941 706145
492245 765661
790698 940390
646834 940409
472651 462637
433030 795662
33788 601931
891136 531985
626633 184838
418244 402393
154371 10159
840392 178426
467305 507946
652214 567490
706405 761335
45154 512882
711710 865793
433289 646393
59996 422420
89483 601879
741041 970211
168547 556985
268554 403369
835220 900847
964759 686391
925877 104547
423386 711920
945042 169167
622275 80025
725978 338923
964871 233574
736002 994261
298112 473105
836476 109455
457510 114460
825462 109924
322992 353851
29919 407967
711425 79566
586619 656818
930328 144308
766246 826144
408481 815079
707136 442048
427999 651473
353288 492515
671977 402984
49774 368331
467409 69364
940597 457929
597112 497038
5114 696795
427880 69661
328201 502802
357528 44912
586769 223321
975133 60336
299378 109520
159005 184104
199052 965964
308332 174204
755446 258752
198662 556668
322839 69095
502475 64832
980208 905686
407438 368193
780659 686375
123995 55139
79659 651613
199151 930340
219117 297714
189447 153878
184074 115015
770733 651932
647037 472849
293767 213738
726793 965518
353537 671745
427506 159308
761283 328536
402778 681345
64824 970273
238680 726749
864780 521715
303359 721249
666607 930508
139491 447872
303644 681655
59944 418321
20237 885727
367263 939155
711546 238501
521539 134544
527262 785983
119103 74110
98879 631685
576714 870337
129428 54425
611267 526820
970290 805726
501926 417837
640925 193907
826131 184507
223262 671934
223684 701199
964943 626521
691385 914445
502262 516921
801147 383703
900469 825258
343222 348607
990240 228943
24571 64267
83984 636764
561748 781191
930649 323754
642468 383066
104344 9515
945605 29640
592279 402984
462848 333595
751297 826155
421784 10360
248780 955149
965057 661166
880654 5666
829974 965004
486928 189240
532271 925316
891108 547646
114656 178529
60137 751581
969737 796020
224545 462844
353578 866097
637282 825612
820401 711216
955742 29267
393392 477741
19959 432398
756569 70113
411973 189032
417871 303193
104839 532058
508172 507375
856412 761624
373355 163544
651628 447505
781089 477111
84311 144557
492842 955258
184452 711541
139054 642377
283375 870596
884779 826598
54506 970334
691611 125120
473339 696028
686647 428371
677097 885076
372764 99781
118890 636822
59227 89363
5676 309068
9881 263398
272651 487873
861021 123399
59790 223613
83975 353113
253404 542085
457445 299615
925514 556822
899924 438110
891124 174242
397945 179182
980130 397906
517568 492241
856033 811156
651762 596914
900364 895905
353326 353487
806282 855422
880282 89829
482506 945731
975468 452132
408044 248775
805812 193933
810853 646820
179248 29539
457274 586706
687182 890776
681119 248568
482533 556560
457330 303371
397591 870447
940783 721580
627168 338566
164237 641892
393287 571468
229193 801405
109116 741742
427455 443308
463371 323724
124534 512059
481852 835366
169003 756700
138812 268617
730879 875192
810556 601774
373033 283677
721429 815934
950445 373503
517053 969578
591387 885342
731035 284066
357503 731748
133765 128786
139100 845860
766441 627597
74831 770484
895734 308269
572571 741197
637177 870915
338345 602653
696628 700651
234146 189188
173885 113985
606933 562549
293512 20604
79603 820571
39840 243469
895728 905548
418058 576789
790749 871306
412710 184249
234021 875922
64662 178828
333211 805859
363484 825942
606807 134005
612140 5470
582254 900829
795562 233962
442533 661406
423302 283321
576808 9913
288834 606495
357947 865495
517050 820958
15263 29820
820572 258883
989913 248980
866136 676645
432590 452958
831243 258479
899899 507217
344210 925314
353813 920237
487721 457260
39824 34870
452513 591565
328439 139831
706319 119661
647022 432907
203367 79388
238922 322767
358538 925778
343809 840886
382972 612828
233165 119471
19819 531867
930153 721215
840040 761089
393722 293709
687275 542335
521586 835572
418154 224247
358019 944787
368315 546906
223820 144580
492689 377401
154029 930342
363471 870729
945104 229117
865256 273411
303844 725616
582099 99956
223985 636537
602588 741546
582123 517926
571926 178466
542217 437872
278604 353472
318073 567431
239061 100399
512260 387295
531927 34750
94202 517049
801532 909916
84021 781317
690667 159040
527635 835799
866040 840185
970065 422596
596820 866344
457465 234343
537639 194245
482549 780836
353225 412682
358852 158738
851136 313962
442719 954257
845954 995307
507736 616912
811162 786056
791127 4582
830591 671403
164161 104939
69678 537846
422622 577284
412938 34347
581101 39823
283682 616228
631553 363176
99247 920358
696483 448284
313308 910221
726866 571222
616667 308852
577301 498803
592348 576418
333182 607034
30088 905564
965289 244206
158759 829924
178621 59704
810242 483091
169930 209018
522746 218938
378761 896004
138737 810442
790943 875653
125163 924896
771085 617514
945384 870590
178821 118941
343337 477113
333930 148747
959542 806151
626608 701711
631587 328806
611673 453774
760620 498235
288884 920570
417490 169283
910252 522630
950486 855440
875944 497473
408276 781619
387839 616902
303831 855723
357971 144251
377523 238731
502521 20208
158758 686445
790304 865228
184240 740493
243094 805854
781019 358607
239273 532957
904858 24896
104229 309084
692666 686808
866099 880452
238185 472619
551420 318890
284411 959742
328510 472541
188724 303469
677143 910409
378133 825683
969409 413843
10076 900782
716383 567212
835861 94080
55089 960402
213563 696495
194248 498383
407902 89976
880162 512387
601435 835633
19609 591847
825413 657373
214333 69935
696663 238322
213761 253549
253871 766763
826164 826005
35492 661045
427519 929121
731112 517445
875926 755808
855752 229238
337999 501788
278588 661540
979975 671532
626479 134275
547231 512094
138936 527038
820918 268071
910946 960304
756295 482399
447338 462824
179742 343722
900792 616789
850256 522602
253717 621456
59822 627135
249140 831230
606749 368198
487639 323272
955045 492520
955122 302929
358631 273824
273165 477765
641502 263308
118834 745930
581527 238098
9584 841185
760939 472945
721064 726515
423419 403083
130054 861202
945928 478110
20221 333818
736142 408618
244184 273531
143681 382994
467620 188657
417356 631751
338280 487832
587263 547623
716323 407607
104003 39543
975123 915711
248831 368481
552308 795838
596617 298681
676956 248322
880831 915656
711327 582048
269174 880447
363694 120002
154454 786466
109724 373208
139275 656599
173503 34983
736527 533087
75177 656503
596500 199623
184043 895179
955621 934695
596247 308006
711877 189135
935063 667195
542126 178593
293473 193728
477401 129237
249552 482252
537422 35173
865308 263772
487524 820701
368573 517224
303715 905408
109684 238666
253298 740153
925363 248629
521978 153910
576885 805772
920266 353244
725812 716170
984847 44366
159103 303574
477334 811478
204177 627251
681207 696573
24635 188799
327998 651177
44446 114376
995334 288080
747011 636625
59610 283456
432221 119271
572306 140380
168966 478241
238952 69619
195158 75409
288446 890496
536672 592296
437132 526681
482586 701222
711242 10772
50145 273719
537174 785762
153905 990289
377506 119184
597639 442842
641715 154339
198674 45066
353427 656708
601271 154371
969265 458024
592064 513416
338424 572267
412748 616670
726221 746484
188492 422918
756124 985369
487040 741627
647188 209110
358299 890200
886187 686283
467382 816247
80089 89643
314079 487571
810557 342936
521850 148871
89006 328016
438398 751673
965808 831122
392577 731470
282787 691379
24892 393004
452623 512413
756476 10044
552547 612164
924986 616941
114914 159445
705806 775369
218791 780740
830781 5447
98955 119361
831493 447428
950365 682328
566897 765846
522337 571821
905061 83666
208566 726273
378404 721082
451829 820603
975811 164409
397069 945056
279005 846082
432221 198905
115172 248585
815796 183712
338501 855603
189106 109444
164284 44006
134449 970816
641407 4334
194744 741419
661044 874553
428140 587072
905413 696633
288668 616502
556920 417886
716335 363148
915309 830469
269003 945528
114095 60496
874846 363604
204073 338188
716810 427825
393388 970249
532260 463125
269260 900813
55063 711281
840265 691223
984528 994882
671561 69016
965048 402995
253407 601761
229188 447345
104495 796458
387741 54640
128882 372642
995391 368269
711199 631227
606548 717073
64717 477557
492255 865535
601796 924407
427887 228830
477365 517339
875092 870899
453287 224360
875818 591997
652181 214022
507901 15013
791287 994568
691378 442604
945725 845344
761003 691379
322755 955580
935867 985542
701587 840801
656883 736712
770267 726371
925203 264158
383230 831106
940330 542291
984732 636662
651113 541129
427668 10081
736114 502959
775377 348006
179309 527684
809998 521885
278317 114550
706725 357898
915723 542108
845981 257681
979840 895743
725968 74692
467672 995187
631060 716036
452541 816298
79542 189544
816597 214004
64422 432362
562258 960258
423141 194471
586779 99114
995345 740775
622041 974848
601769 273312
54451 437222
493217 571701
721206 332822
681561 975670
960453 428521
272899 99188
417889 69626
164382 830737
801371 571694
631163 238768
64678 735433
388443 328630
268555 427666
642390 860723
477546 108831
34892 268741
458095 269247
541887 650912
74652 483029
94948 816502
268768 308535
646829 532356
422956 353081
462934 975478
164526 815355
705680 750862
467164 785766
59948 795720
93937 493034
24900 970276
462988 705923
40148 596889
40156 278660
781621 248625
267995 611239
263482 855739
497630 273875
741522 557696
517256 74309
327863 19747
189052 408744
209249 397552
358467 721936
959892 856324
492538 447617
24995 940998
746362 726566
895529 124261
522269 333567
129437 262960
477258 567517
198790 617295
791567 725937
65022 820920
960120 84710
940468 557088
362906 24325
632034 249202
785345 179183
696223 925910
890710 178924
826514 935132
537144 601827
611865 721339
128998 213553
945406 661660
219148 696341
543077 228189
482827 193082
333320 368779
780814 681151
269543 915240
15699 941082
965264 94341
367638 40824
711702 816221
328788 990493
597098 731000
348228 109629
994934 662279
402786 159196
188948 24893
24357 676212
865382 512393
781393 577421
194246 875207
880990 591651
611515 412154
631627 949482
532612 407131
34701 577281
577555 925496
99417 746230
457315 631519
831245 318302
641875 974813
268901 696338
691284 173869
178866 905416
920006 522650
602389 830987
969985 617247
611572 840203
248434 622300
333102 89743
680618 287795
949761 696129
427609 208430
900325 686068
353217 59815
542517 711345
970367 39455
626761 746322
542499 517521
741453 437376
173598 925672
805560 457149
840901 810581
418289 626627
904991 378157
711911 506624
876201 79861
378800 328241
626981 10037
39963 970099
637018 985352
283782 975256
44831 532865
646988 780956
771854 327766
676535 103801
193269 214031
617092 507455
770697 846251
398200 54854
905870 437878
776621 293389
412624 487866
298341 563241
303187 527370
327557 49613
986001 338886
706861 815988
357823 324205
587671 308377
736816 716321
65373 507287
289118 731492
54984 616978
179023 328178
741933 467838
786389 19696
856332 836020
716766 542966
144163 616587
796166 746308
164664 248539
288675 695953
328245 89644
641322 675736
79563 79739
661414 870592
219004 98988
338999 970470
183822 940492
234205 89716
746205 587129
89201 233740
248627 303557
486796 482510
875806 164519
407510 293647
367424 20264
651124 731165
562075 642050
378483 696042
318969 199367
348596 169223
955162 965345
144178 831158
234690 418224
666348 944995
746737 546928
850299 781111
622317 830024
562396 631955
975012 642107
338719 841364
910047 124573
89382 482453
104162 920347
422819 373119
761456 924924
646941 865581
472428 138555
742133 129567
532159 204729
54465 896080
238824 4658
80158 353460
920716 770609
587302 214089
402335 900507
740820 691209
198329 925606
89545 582760
129380 959551
616990 751944
219130 472078
791357 542781
761159 681875
382602 586489
721557 995096
183865 692398
761133 438143
463071 547097
741713 541717
263581 980145
352725 711234
158224 427378
144210 392563
84940 214297
920599 125088
94584 865730
85062 706565
522432 44262
229660 164058
20142 995315
229322 462489
955497 731682
318251 517468
716474 307646
771024 457787
188883 512350
765897 194371
139450 317853
253772 870896
223419 123635
14980 726820
84887 641682
193819 935035
234761 700965
592089 736600
367340 25238
64716 731595
478172 930364
671843 144454
502800 975170
805974 512100
169575 919760
603105 497628
670822 392490
497506 9842
264010 900590
547052 636551
736442 850498
488115 582084
726774 408403
736066 627093
785756 170107
40023 994483
821151 323572
631652 378346
154135 218938
289404 661739
850592 696867
805659 313935
721293 686206
532326 662423
741099 536866
263723 796170
731569 483145
865275 835624
975292 850832
488038 94765
830780 483060
920765 657000
204034 930304
656617 193624
855597 278966
143805 557537
178672 646698
49323 810577
447693 15056
188709 697160
204568 224261
133478 378152
810379 352986
512576 974915
398446 964324
483061 875185
144711 591458
910392 801099
179019 940447
740916 910247
562575 517415
79306 229038
537436 238408
621968 472692
751555 731908
179694 731768
54789 925395
636482 716249
701661 775837
10237 84503
218997 363017
234302 990640
417931 587028
93801 383292
308402 382674
199168 895196
770030 104255
104150 950307
382327 607505
418647 766223
368570 423074
183187 994611
283105 113747
358258 358897
338395 20392
809777 836220
841204 337654
452688 864935
701520 134603
841036 780773
770423 516993
233890 661169
183983 736735
796292 880266
562460 980953
526888 427388
994953 860578
556771 542158
477496 417524
110130 34449
363030 592034
249242 327989
90164 597471
447654 621965
308554 795966
667069 507827
278654 805615
547021 880988
707024 557897
338351 224014
900555 621678
333111 124512
621135 755810
433254 810888
423630 422806
258857 905274
706775 313301
477323 651795
283793 597281
984807 796459
492861 671524
795809 130422
612585 358580
806381 750803
49122 572800
382988 870484
760998 631907
327758 298445
656356 278984
412766 710993
44528 860986
731174 114548
527824 24691
218431 348679
631785 417643
905760 661167
159815 213125
398458 826061
845326 875454
498034 70147
268606 806327
885819 746961
646438 512275
368005 716126
94794 418025
208902 488003
254037 652861
786648 830821
382832 900600
447365 547066
626264 25032
621684 477167
20328 557018
975073 964846
631301 129129
821124 468290
75324 900418
84423 258927
144609 900121
228589 806127
627310 856009
472391 79887
487509 497867
756194 24418
850401 149218
507582 313700
696737 419341
805746 173594
810988 827186
532443 835930
994608 745970
721323 457439
735908 99560
174354 866351
144347 497986
214139 865922
403059 428505
537817 641520
751311 487993
204025 173940
174127 159701
352807 224313
756580 656787
388316 124231
392560 244139
20386 562343
816276 766507
497654 716870
268269 621714
54849 715536
532279 417854
746509 198961
154570 576958
144162 915570
333621 327850
920205 820485
522459 522419
771773 442796
14136 278079
239277 184064
442814 25009
974679 557156
906575 746863
502021 954999
821154 657171
761090 552466
950566 841994
596404 393121
746428 770704
930207 264178
477007 333212
537885 730615
248895 895034
313246 810423
741262 338017
507071 30149
418333 582267
59335 303992
373151 543047
567687 362848
364004 896090
780295 636922
427512 636808
169808 283332
473097 407833
149706 184428
990179 895463
945338 363356
542634 577135
839683 417831
448365 333707
760783 392426
458030 432105
567268 541966
64392 790576
731431 616261
453314 243613
323060 725938
98867 94526
109477 954640
815438 601680
706350 940767
243968 532194
418315 164200
159550 238315
432642 656585
577432 333788
89261 795929
278195 154390
652173 572381
631887 542470
507577 924745
522461 661679
716981 726026
711338 969972
596698 119464
417612 985153
178769 89622
865869 153856
542212 601712
875533 596760
472611 457048
378554 786185
407949 885789
925329 462596
562331 513091
159719 129051
368209 94786
328204 169309
392986 681612
621558 502386
810665 377817
522928 284060
536353 676259
333671 552113
765863 417392
64234 546544
961053 189201
119462 939631
169561 691171
950379 720870
174063 522494
322689 178388
686208 165160
432859 496938
616702 716007
20111 869848
601986 647144
442650 242728
308585 736661
59970 642130
761864 835441
512039 5324
846005 885820
945097 861035
448235 432201
188338 472540
945726 671860
258656 537875
716763 761302
587596 880559
144169 995416
387866 746303
756227 65402
512219 148925
249087 378290
826395 203512
148925 309195
830645 915095
542557 810829
531810 74611
398414 721419
113988 327920
696011 408095
243600 164295
601868 14566
153833 74222
507343 432564
129277 298154
297591 905709
850170 347912
168936 189671
472530 716642
223685 223247
785871 542043
596946 696953
667304 875615
323089 169593
138626 308415
452116 328465
781312 835374
606860 989937
995083 363434
526491 905288
487699 398389
483086 442650
398042 547244
721993 238586
676713 770239
10255 835906
880880 517632
303577 511565
322931 830490
59335 596991
65107 168874
801472 188491
886624 477933
965308 522133
9081 134194
766360 203417
154308 338543
442750 342957
696465 397899
985118 347928
776865 965273
745998 263438
174497 491980
25398 824776
134946 929963
994696 24378
243619 318722
915169 24799
463019 228532
234005 194492
448077 502586
333123 99386
288354 328395
586769 303598
970290 79880
154195 512243
651401 472229
855399 631857
800886 452969
865761 895497
278728 586947
562376 582091
408412 358102
219572 985610
84053 488043
268432 462917
567558 879780
422960 313174
462620 144410
701710 517035
945379 9855
269224 627235
279135 864969
930891 466811
910580 925036
199087 20009
517062 259344
905551 427493
706748 790902
462042 163809
29292 64120
233948 352700
94532 542208
139290 781612
856098 428051
64921 193953
358850 223972
188537 587398
248970 990092
64532 785756
343164 632057
895433 128928
472921 556511
472933 497190
954706 234424
686979 591795
815981 64615
263805 333607
781072 259169
64408 980286
681595 373658
542272 497754
761185 865254
855316 339028
223313 423355
810316 273872
960826 303487
208509 606627
502346 218878
318609 119630
299264 447490
40096 776512
44153 850734
438181 213256
54880 303113
123992 128852
333314 791317
865210 920057
188602 59745
433212 233650
536941 576988
755979 606911
646610 233740
377865 781660
716828 477614
681734 253824
651790 846003
656804 731578
825407 15364
332863 725697
526384 134663
164212 726670
90194 348276
303414 775920
984536 974656
487525 229750
49415 954928
139453 353160
935760 214183
198982 691969
218983 10532
20196 408727
845732 849928
621886 432749
825598 586906
686628 363363
751173 104104
93867 890509
755417 213754
194244 437716
546708 989888
403177 502420
402414 975339
194572 606523
752145 781017
736424 278648
174398 949887
522536 944800
840811 612193
89176 487277
357524 422878
641425 313056
89661 826174
79438 895592
601428 513226
531804 920193
318588 59508
721182 790637
642251 59976
129465 656266
547212 453270
443541 163690
168746 780431
249325 119661
616993 274202
725741 989947
268278 238667
875354 368539
183841 433305
452401 522034
785935 915584
542360 169178
332497 960864
179384 124034
403511 357887
685858 423635
268574 14191
54502 452552
219228 626670
363448 452688
398337 810473
820836 448948
527880 796398
39822 497303
433414 273462
612503 194912
532640 781283
950152 129695
735987 751269
497503 492872
891305 537037
617382 662238
452781 4920
507712 980396
79148 327869
329377 228471
846314 656721
398211 248540
790757 288603
756118 955573
965515 527075
930445 576529
408261 423243
824836 676808
711354 303316
433236 550863
59233 661870
979754 871068
935425 482786
353520 104894
169387 970467
741096 109569
721742 428003
726178 696577
522252 930699
994853 50020
960804 50101
637456 726179
155260 348246
845801 686981
601919 612239
914905 776649
303646 452939
700978 74691
831172 278742
40090 259027
775805 671567
337942 532841
268970 233340
382765 676820
636568 104813
975222 587582
811462 721094
89811 726220
641255 358279
333596 24999
647112 308648
45003 247599
24972 174849
159526 258300
646643 711418
352926 417675
64393 303025
915311 975281
234014 458087
975036 498043
795818 60718
875733 602321
990038 845282
865147 949989
750519 647138
492254 268861
846028 198864
133867 681515
29073 645851
836280 576314
119152 403256
692004 581978
492295 874933
15205 462752
313438 407450
452885 427811
841140 880063
732102 228450
49039 815866
318714 582173
860890 29763
274395 522208
680893 666229
522818 517403
59053 841067
850551 358488
865630 472154
636516 45739
398119 835507
139919 199081
124897 736424
14594 671411
551559 675911
387835 766756
612476 930233
855502 417775
622497 805729
532205 25103
447927 721708
840128 766441
313699 164202
760837 358181
611918 219296
800924 875498
418756 551911
40115 84909
24983 497617
776085 124524
496830 995224
512229 885069
741393 413440
894210 363231
153954 34992
99534 303912
816290 795531
363026 547373
885383 577138
815943 989818
895648 427900
49260 189293
224556 885444
726332 568086
835527 780814
746304 959606
5393 984590
268901 272897
776310 433032
865764 453118
562846 941283
696295 324005
303243 567140
721876 119530
711221 35073
750860 995407
790787 671739
214138 20357
209718 865892
39783 572704
954710 19780
711485 99762
800812 482797
188858 358269
234090 297943
19958 134636
572048 348918
159095 39686
447268 611998
462938 622051
358382 751010
790746 567100
229054 105397
552154 373155
34507 671980
303842 934436
328096 492612
248903 587202
59822 572137
586695 482020
154271 711813
880178 637325
298189 462625
622569 821394
845520 731222
488023 949897
538041 183937
283405 183670
915202 606950
905909 612161
188486 209416
85375 65196
268220 536964
861059 60130
462460 432357
427937 571896
562251 348314
979738 541948
815572 34959
995674 308921
383105 652291
960571 521334
323661 586988
109221 178710
188212 994837
367968 437159
587721 687337
496960 283706
328503 637303
208898 522164
871042 631770
681856 159277
64149 677068
357871 909768
179668 268810
139346 358279
835641 652118
309112 671747
731395 357974
64997 900625
218622 248997
223562 597010
562161 452657
496762 701673
49908 602175
820705 900299
745746 979968
761659 24997
671821 602111
835760 338546
765914 223175
667358 909680
671694 288671
74998 720805
710883 308868
129517 745639
138944 796269
173934 662128
178812 516894
134191 691421
35054 632231
15136 183618
815811 640939
438139 994187
124333 820398
815946 25428
44651 726298
253853 79293
413031 745455
164219 233552
248357 691842
64729 232912
323786 731467
153588 168577
269244 69441
327973 860325
626105 40043
592009 263888
213490 666417
617645 14568
363232 915415
542900 572202
69225 696516
139520 4850
129380 756274
984463 761146
338651 955107
735837 114552
273800 233632
70059 288305
383556 218816
716777 94304
164612 994911
665965 682459
940217 327901
905690 909767
332715 288699
755775 835414
601882 368214
74635 388164
521959 368144
338855 751624
233748 283121
442975 467868
178783 388788
914957 352852
522199 377852
363406 656680
49418 612380
965045 452340
114322 631879
328113 567370
532061 512463
382788 646454
736121 980409
243822 890477
895250 263309
881211 726838
199363 776306
337823 308187
488182 14883
163706 398395
934483 925389
885326 60170
158425 553282
870057 860536
14607 692017
984245 144384
980032 368548
487257 507403
756429 174124
721255 372820
891085 64378
781400 717335
547545 965389
457862 258809
387660 601822
75042 875868
119181 279414
727333 731906
955617 397547
288556 109275
875615 224419
641555 198767
592066 59747
239003 582085
44408 567370
875294 831298
811420 761523
268631 243829
940169 856178
567257 657169
392059 393175
457747 497624
836589 487571
333215 129256
990650 209598
368094 269613
263971 263384
815920 775859
308349 647469
715739 930668
382891 104312
547871 422814
64846 861232
99319 139708
417884 841019
324209 39504
29298 333438
159065 919880
179482 949809
412837 24647
716017 850035
696254 910311
109631 915562
965874 129678
889717 204063
816006 234076
164358 935361
209364 358362
249107 686402
363004 482760
801254 591289
89571 975264
407860 188892
805735 64932
99025 781353
89280 124686
607312 587024
69679 332739
940447 119303
153783 771092
393379 342770
681011 328122
632160 885989
109595 448152
576482 900504
288174 596978
537590 572397
54656 934859
522454 632197
875612 378277
49745 348454
65060 551773
820854 766258
926122 910485
453445 358019
980472 761622
522498 666867
183830 791982
890343 587109
592482 860443
712125 541803
651505 80114
875056 24879
706247 567362
581575 975751
506487 337893
293635 596728
955248 621951
442673 179645
418207 935717
726307 402366
696015 527836
99740 775646
687601 642105
939899 641717
571917 382619
487208 889789
711114 945278
362638 502177
964914 472672
169422 229447
442162 965708
9608 830252
959779 826433
716083 438713
104545 462371
681237 29887
99426 517176
347879 477033
696525 79637
920491 488394
25192 29803
398935 109084
278354 771375
517275 223859
10349 766306
418195 541548
244208 765805
646810 55090
791081 427696
785305 791032
576829 894862
432884 995511
925447 597472
616603 636656
388224 925064
318447 855349
646529 427689
621737 382546
203577 571855
512570 686822
975101 418509
830768 522072
4944 442985
879631 392910
651534 616585
725666 537983
641415 681685
299038 815856
775675 681327
676061 59731
879791 373442
940254 134393
954614 259044
198528 950246
686772 845321
283553 378028
303281 979663
4600 328438
224098 218078
392923 119292
69863 214247
99563 358731
522366 398770
327913 304556
232845 498019
368444 468301
984991 970158
870485 472652
333419 447821
29879 79771
268789 472576
228991 526692
984162 567212
959504 123814
20018 199003
35223 194022
367991 118890
681440 536417
685889 721217
393251 80061
815478 865137
900716 602015
208162 920621
283919 39926
765638 994615
432875 318816
348137 990492
711662 512335
164109 228765
154792 179960
119403 367254
875620 347628
149145 144068
502630 870565
497356 850411
343083 616906
168213 989770
632028 427917
542564 707163
686879 935020
303173 607880
805680 985384
856276 60441
468486 631991
322720 113915
537076 910257
582302 283611
701343 143959
964791 34738
835958 631587
74825 596917
567180 770869
437584 726875
990791 751118
517191 373053
263911 667050
989975 353433
477571 612596
546636 253413
657166 492582
328371 358133
701409 238923
438065 417604
672727 243420
710785 243818
308515 652194
473201 314197
114541 348757
546950 472729
413012 621777
109844 945547
333553 711125
179461 741366
875355 487226
666834 169456
930923 627031
706707 239569
374007 104316
606997 159265
741246 477523
974945 54731
904748 214221
294082 865475
835185 189710
199809 661925
80050 14916
248653 512706
248769 139419
139382 646546
964837 89497
870005 312805
338256 427522
562198 65055
29981 790739
716369 881196
860135 337869
94577 84408
796045 960065
855685 85289
810506 656946
487839 159848
770824 303587
208888 830665
646340 149330
218668 378282
771274 119048
761708 666275
840270 462856
954802 527449
512371 94697
765798 492506
810874 183482
681828 134700
656607 919745
412780 124431
760849 447576
203825 785287
60040 248694
442659 418063
418493 905768
69518 811476
84379 951039
761454 528140
885842 945282
576862 626104
701710 522586
656776 686565
905574 751401
312967 706449
567627 686830
323433 756229
278523 810412
785859 312794
746567 287689
69539 631699
791515 487318
93940 637502
955528 531762
925834 925575
318572 660653
293687 542396
433165 104410
935603 353391
597415 14823
567672 214598
970300 562422
253437 194159
4602 64617
159192 760480
690970 59715
367935 895503
861161 631746
954810 816280
423193 254281
199282 670905
945311 119917
761124 153781
223282 757037
294461 129343
492530 184761
138916 661846
995415 298320
726104 179051
313251 616081
640689 418102
960564 348158
785993 556919
745926 448055
636631 273380
188651 64437
213760 134319
343353 179329
114703 407984
462556 831500
676971 84694
715949 692060
125068 701162
621410 546798
289388 567434
123791 347937
10080 462396
750341 328481
243193 885594
244415 10482
841554 49499
203666 403091
248493 523090
800911 915065
279403 646921
507509 298406
178289 19616
278961 860964
447232 576770
199169 831204
667260 85084
442970 239548
368253 432528
716696 895772
124769 139155
263457 273150
89083 856109
622135 333266
716695 557518
224391 10840
64874 755928
949765 492707
935398 313012
900208 238806
592470 431504
701339 860651
473465 442611
915645 706433
706953 452444
144348 815473
870906 811160
696489 790447
685938 527396
920111 118330
387892 427885
900491 198771
268662 954787
198751 40512
408182 925279
954562 775543
905455 850849
194477 49578
517969 35341
502406 557943
373711 970022
850309 994987
651902 387840
468096 258728
631991 64030
477706 726133
969740 756228
866455 44410
845971 10120
557230 557091
189518 716666
974460 34439
591233 537291
950230 507800
283374 70059
860390 556822
198936 14607
632223 581979
651502 225020
507881 293348
149265 442828
138903 368759
258590 482737
770899 477818
58911 328385
492503 547139
755853 398472
73719 169466
80046 885118
387783 253780
765975 188487
885737 258394
751991 831065
986044 626898
35364 716071
925810 94709
428243 457781
403320 945299
736400 612549
935275 845663
721420 437763
776448 179141
492559 19341
20367 875772
303569 691222
368347 805681
517514 432796
527342 54595
332690 467890
845478 89151
283655 383020
969878 900209
393125 542241
502616 104990
766382 661986
845803 517627
845625 636475
4956 548300
730887 60015
70001 910906
343717 338399
451580 149241
179141 14824
627450 891413
438416 184305
89346 786065
905105 607343
975084 989616
716139 581587
507558 875521
666278 651541
272997 606612
144016 129095
234048 502945
259663 442455
875844 671076
582076 382913
875952 760773
532667 110167
865288 188606
398182 939766
930893 448114
731804 263750
79332 696460
910525 79571
611758 352927
193737 293566
765885 816172
820890 755809
273629 378142
776050 696915
322661 592677
314136 835646
149009 557431
691030 447438
984399 482573
223256 467984
65079 203819
566993 756475
691447 781353
627273 312927
835715 472129
283121 417690
840034 621722
721025 641383
850539 836321
691647 313596
478127 452452
124182 626246
990120 283876
134113 497518
924875 682043
885593 313601
443137 632086
472803 174044
656511 40534
382860 427540
10271 437974
492007 836040
651648 751305
154397 532148
104454 666309
707273 15368
945713 761614
905471 29355
64756 248377
89767 775753
74931 641823
721786 343421
662653 696668
447380 164225
805715 850117
805219 84799
825552 686483
990683 591893
920056 592462
224657 806142
164365 368256
64389 447510
785538 905151
806316 14918
491633 855866
746091 975457
646848 651261
338946 238646
354008 348599
109143 328377
990339 94838
45009 706058
363951 69996
443481 571559
402582 4674
571932 308992
432704 347838
512495 692033
432526 785251
845445 254078
408319 949968
666298 531657
269082 442493
287662 965004
646338 920417
617404 263219
607077 120106
562321 69523
432984 184084
771140 84963
602150 930347
856164 860727
592541 791381
432755 34558
746058 110263
134113 801069
925123 551699
9557 727019
437316 129556
681658 49350
816424 925052
725636 960617
666753 109822
840679 109271
621529 194202
407315 388420
672342 720439
765901 622077
785678 815982
228959 696338
681432 587607
831071 616655
556645 576727
950200 791110
970069 477060
866708 94773
681460 497508
586846 462615
522872 194202
14423 24776
144344 825704
935221 517785
149172 665827
836189 716232
676685 278398
139969 959937
303586 825952
263499 149106
532259 880172
955144 393305
308315 194250
14804 617023
134256 950038
592442 930110
492371 551755
283053 143925
805668 546880
413892 910197
94920 582187
99231 333208
487628 84955
985073 875266
955203 562039
786362 227814
676796 169474
990345 840286
199057 113754
298034 686246
691353 338508
906396 841947
726771 442567
342900 940312
771626 591833
557111 796124
398061 596984
576727 984668
209646 846078
735676 621297
572153 671500
94296 74361
531966 955079
417864 109757
54890 980073
711432 637024
164257 621631
990306 333291
303843 766164
309024 452230
308309 90496
323252 452684
567193 785315
337976 811213
775884 233434
870442 328527
154559 303100
527386 596232
447351 820631
342994 467561
198715 24754
263067 228904
577249 581893
471942 54884
293517 104268
418023 949798
193688 706124
557403 612279
547341 223955
368252 194042
637033 392934
348621 985073
726525 532084
577435 318501
670954 647130
785918 677261
810727 631970
507377 989834
721829 712196
148835 635952
840430 566978
387622 632470
511817 228680
672182 238792
527500 895941
766382 328749
845815 706278
984990 805833
885961 751636
796407 855995
358349 880467
79311 278333
626627 408189
80266 940453
994827 98939
726315 69422
119298 327839
477453 169108
532683 735829
602167 785529
383747 516868
84343 712181
174281 273378
18818 383365
467669 203548
273943 716230
667075 289019
24749 576928
452771 741186
830989 368364
114284 217840
771345 995270
4300 825610
79743 959315
482721 626829
592001 616869
257778 29752
54095 427562
493262 397967
239277 24242
905621 895739
969815 243540
835911 253610
19918 935904
453053 133764
865872 193776
407670 129116
845243 462812
273281 990382
229142 825527
701633 308476
164096 492024
830400 497504
213911 478004
368074 442200
183716 636776
313452 607214
691237 626886
929774 273715
10556 358691
398206 19962
691581 293506
313334 696718
815231 99028
905425 363528
224184 790503
95080 44731
144461 15342
388113 915571
825532 139628
378005 372804
711155 84900
910288 676287
214349 960525
233332 432536
527332 686358
337931 761497
438246 581629
78763 93600
418078 522071
686358 622066
288871 423503
711380 810675
796042 920832
551884 447363
940559 413377
437912 861153
99395 591913
333939 935004
155223 437688
143955 650931
164234 283520
213708 790664
14541 64425
955634 830360
671811 990332
621570 183451
487539 24639
427881 696846
402999 846313
20046 25086
551814 562212
238602 15227
442457 672082
437761 596603
955279 691190
751076 442561
875607 895497
776000 264564
875726 462067
179458 433169
522293 74795
726796 492682
69418 25299
766673 865765
930397 960073
701495 218231
721320 895417
895669 647264
542168 940475
323991 646401
64056 517811
83986 935250
84890 592232
870477 14334
208493 751403
413572 945053
675849 448127
497648 861135
915749 443487
328391 4724
800839 8452
626945 980115
994014 895596
343387 737026
118991 935240
522000 99126
547172 845608
403081 417993
990142 343398
750993 313359
597333 508316
89797 751158
408190 314031
870686 517257
805684 860505
263581 965221
686183 323908
909958 64778
850993 954689
289243 875616
497449 790503
154365 59346
830864 323645
994495 14839
19772 8905
54047 875447
343758 760854
487564 467919
601944 675895
497783 745671
198504 178752
403079 55066
950384 522718
567242 68813
417990 179089
35477 801267
64349 541571
785933 765774
940235 383009
149728 134393
297938 493135
154056 473288
189060 681466
343014 74430
631955 89255
238050 547351
800761 239362
452999 586389
412593 228956
656893 582441
697300 975652
836141 666477
39784 751293
686780 881444
48892 691440
64894 915173
129278 686624
651910 407536
765560 168763
890557 472687
193294 283866
601842 801496
149243 233426
178946 815976
830515 332896
89642 134265
453104 850992
238829 179122
989958 716398
273991 129343
642002 821409
821627 159286
253550 497446
845908 353108
726032 870264
970457 884959
293164 666489
731153 790192
392949 208876
302998 288273
860635 19689
253580 850617
144755 263146
667119 885363
815822 303887
54539 154123
755816 716731
168821 851457
880889 458190
955043 508007
59351 64956
865054 40020
891437 591469
203927 229418
801060 55318
188585 517581
691351 418198
199274 50105
398204 487271
15322 890202
790936 969689
293109 448148
939876 636774
436980 507429
497848 179340
472572 89451
896124 174610
244453 140405
318401 24787
482506 771373
899771 219592
447874 761152
805598 259248
437927 547542
980124 443480
313563 303568
900135 502260
168991 875862
448124 59966
885861 160203
497179 369377
910244 671998
915032 861176
199366 34932
939437 851162
428658 517210
572078 567224
681331 980037
686316 328211
880131 780918
294393 989842
736316 447606
438090 85056
571338 731516
556804 288767
567330 174944
721104 861025
870832 900648
731411 925711
616448 973782
597145 59364
776072 129010
313235 721710
453584 616688
338646 726443
930284 945512
945708 184856
975053 333094
103478 780943
860383 213974
820447 835154
581967 34900
34540 363310
402681 373360
929923 636558
806024 666484
870329 716257
671291 800874
488070 885734
930533 935451
64313 422942
114625 233667
651621 855626
591717 865900
4160 532168
228699 721664
503019 855314
939810 746104
994683 491627
159865 651726
79999 681718
656969 696330
841031 990135
870872 65398
885383 715856
557089 816020
124384 502361
19582 751603
383497 590982
586426 343373
134420 189240
646174 681806
104863 134147
925447 760648
417374 825497
571860 49783
378037 726581
905265 617250
945103 721834
756194 880864
522794 710959
720901 547601
10182 34924
124157 671752
716773 99439
890686 939997
462671 298871
611998 441467
254196 74506
179512 716701
586901 726089
412733 193625
154366 134342
502446 671643
304012 153767
915474 303608
995032 447951
800387 715477
826243 134093
174362 781259
870070 820827
318922 889889
805979 233914
338555 189763
507259 452983
358535 581719
413095 14688
596855 572222
706228 293513
755353 348217
388286 567553
622226 846222
671560 562277
393316 457279
692198 138997
571243 115694
980108 133793
885825 502606
889896 756067
178653 496787
890631 233796
213650 736209
382994 820822
433064 547745
189583 816311
851133 289407
60349 134234
850565 786466
612030 537192
830491 471929
607039 652428
880647 871170
950257 487733
930652 198372
581834 921081
562904 776036
925172 905415
69209 656689
905543 59836
701874 104558
900326 298325
502276 114837
308207 130232
208852 956036
811012 533665
169163 253624
14952 387794
542468 791422
701240 546791
324077 990169
701660 790691
368123 492566
796275 19398
750762 45036
119663 412729
865621 79916
144224 194265
4892 795749
960464 766035
303582 223876
731195 487014
532239 572521
109014 486869
875758 881095
417595 338165
895517 597332
308960 353740
765988 721721
587141 691651
368601 69792
975312 407526
945766 641485
655869 119416
253437 313424
825673 875528
422745 39741
925022 771138
208694 945128
527083 716215
532844 611236
516796 771514
592161 452831
362574 84611
173982 377995
19594 208501
586843 771131
144669 214286
965689 108846
407962 94921
139316 726338
328288 284622
960350 382215
567855 393391
129088 29824
114858 353885
766533 691119
851196 452456
512478 407824
949966 576711
835246 601838
622060 736526
811526 975639
353470 94412
810967 746628
313012 582489
223851 944984
303530 536852
243940 89024
348651 785329
950466 199373
511868 571933
791000 378250
263903 144760
288948 168994
9554 443034
974864 447523
244112 632007
353469 357687
88996 681123
154542 50174
49809 890011
562064 900386
761086 138931
362859 422329
656475 457475
581896 626460
885733 173817
900506 800990
940440 293401
243117 94699
611879 750632
272740 975756
80439 875228
298427 438099
581778 507807
810647 651586
179090 990173
881032 437233
861240 975063
149748 656279
149282 825949
348502 502127
184379 611775
363104 273747
785963 158875
776211 134462
596971 885885
228859 144205
5156 691747
964822 940012
397827 427517
178855 671892
164308 905128
726299 811294
532662 786289
646600 75153
662371 373593
686982 263684
204323 34783
780663 74298
682363 702018
865583 786284
418084 721065
726131 552397
691135 20208
924993 601681
786790 959522
4933 20082
685967 701753
701389 975071
263844 353209
284265 790411
29725 277876
945228 611823
562328 218361
821202 885699
840805 532461
184486 208519
810850 118997
527693 512795
427614 507778
467901 766390
193748 188924
517081 154196
855645 989855
443134 665948
980188 706936
905271 382586
387747 442864
119337 447971
721176 776399
601791 567513
133988 179675
198912 596920
756618 344032
532827 322996
113395 716440
935387 372928
796063 731583
805535 303047
259223 557627
909991 945608
184068 642217
412877 522572
313585 995115
418328 139443
149210 746477
731782 164510
825398 582417
223271 109111
796194 153904
731242 901407
109379 119300
373262 239106
980281 183997
527079 39628
223598 322756
392828 408131
596576 641327
432285 765681
989563 745686
144780 9687
805557 761685
487667 512395
69569 636921
65191 214007
382799 557075
145148 611626
253492 975052
307550 995161
129294 4645
412981 363565
377783 557234
114516 825817
397666 139131
348468 665828
437204 944909
299227 183956
178039 109380
432555 353650
283100 989893
437893 188893
940413 667045
34820 726242
786317 114562
552782 566959
5172 890938
961077 397615
143904 721185
676295 905486
830607 178343
303165 144227
29562 751903
448058 403153
800787 487775
636294 268617
253623 661633
312820 422635
467323 417603
680973 512222
447481 467516
343481 780782
219243 287880
840630 652145
696023 377921
144226 885866
522164 178845
482532 328866
796520 696763
248680 542038
820614 347429
393294 910536
482895 154447
49960 507027
716811 134779
781468 437736
79321 482456
188430 915577
776299 119585
821349 144617
841433 746185
422979 875202
74584 149385
427556 904564
541736 193523
180097 347507
835426 760738
876221 308948
591820 298331
393306 19422
855693 308751
666979 278639
314349 686092
243335 836128
537757 905567
701363 581219
562008 382394
50087 696340
14417 39841
696330 60245
233530 930430
562162 523087
526942 149799
685940 99050
805534 597601
860773 333697
338119 328446
348430 587486
378187 532351
193107 447429
601814 283022
806364 880490
213042 487530
646923 670992
731471 940293
636798 632160
114890 304074
597366 373110
19529 860048
914747 379116
308417 661642
29804 119135
890250 616021
502739 352840
641969 347919
304164 149061
487772 144415
168961 671722
680969 129251
597056 796081
428509 870328
24778 661484
726324 766376
586541 924982
104268 164114
208669 283578
432946 662605
885422 198121
248464 317895
945412 189150
656808 781619
343282 855401
532737 989526
965041 69432
278734 507262
477192 681790
845385 169609
294130 119768
263423 417900
59599 587266
233710 891358
298520 417195
511568 487170
352772 30273
736879 358094
204334 641628
850530 497490
800967 995357
557440 537054
99579 616464
208733 816075
622207 443038
567598 377582
627372 969927
462285 805525
178725 99518
393540 841310
244184 353626
368126 99539
149836 646476
671327 811265
462419 109760
134279 571772
710871 806207
99104 527199
706663 596631
830725 199618
692022 482417
74869 676138
508639 173980
243912 980030
204334 760799
850169 398220
393175 30185
213765 964372
974966 661566
417232 124462
244446 845220
582198 124504
646365 84711
149170 208332
54661 69685
64808 428091
353365 9890
333482 297949
5109 238792
731586 955436
806001 780924
144543 477764
890895 428217
188393 467573
526585 735810
715950 625603
24984 726053
487923 880493
820546 845639
825929 607422
64763 811010
64476 208202
159622 825647
781558 696426
671228 423034
19801 109937
984700 790240
935301 40104
735764 890587
253987 829992
188963 373650
511819 397571
851309 64726
925118 338688
138226 806412
219179 965009
816044 119352
571822 203447
29271 347911
229153 402786
164006 571812
646830 29749
786619 79170
781390 244268
233512 941092
936131 969408
647258 458134
875236 656118
795904 109154
522905 731557
74799 368366
472974 423170
418138 661533
861311 686043
581872 536755
238628 487032
79585 641785
338252 960018
845473 478087
879939 696889
482056 995194
939872 950617
839963 646214
457650 741315
323975 462549
846434 531535
547222 672017
194165 124098
835732 74989
234014 104161
671651 169633
790629 397428
203688 278401
705586 711252
646840 15142
238464 910334
806257 577726
557010 462742
337571 706542
775566 164169
89635 298921
422929 144171
408856 701427
34526 706554
224044 49524
696933 547253
830442 622102
726374 437954
775643 472491
168658 223869
760985 994682
288815 342936
825329 329199
69968 88955
742114 327880
711920 139279
717013 5056
592507 308694
348110 233723
169771 79198
740900 209466
975509 511359
234137 412578
362698 149869
468051 924638
463668 980705
632053 816495
557710 657331
4144 556209
950774 905426
965558 557264
293518 313412
766036 537259
318182 253532
696303 512926
746273 14082
701645 781200
4718 571693
825573 20229
124530 840535
308051 706676
731371 552339
423547 527721
34611 139186
975496 561554
542226 800887
487149 253631
642166 656280
910641 39323
318669 417816
706179 513042
905484 199274
527453 437944
895226 204229
641467 472392
571729 442577
279039 193133
393394 114551
94457 393298
139605 735882
378051 711035
188693 984897
283498 447699
821022 15375
19942 283629
219329 194085
20081 423305
990453 755876
855785 24023
900698 711142
527906 845593
378190 567512
925690 671862
696849 870446
511683 895566
616742 756220
558041 90079
462832 44755
995403 566876
442209 637195
348861 861133
721895 632340
114253 213620
264658 732001
935246 810780
134559 79018
447001 616704
184527 567044
571603 506799
184189 841183
60631 895219
502551 626040
492571 592620
45293 69302
283191 194592
398341 875898
875485 816872
428048 403140
557190 248834
666708 741447
184304 795555
94880 626889
318236 467794
184220 606766
557043 706570
69910 338650
20204 264393
706038 24858
463425 915608
472647 765658
482974 990176
815449 442848
607305 239374
144411 124271
258631 846106
437399 657445
382548 840337
895846 403220
203735 378503
263528 473005
402876 39937
289053 198662
398037 860902
934552 34939
845451 279352
208242 825956
707113 168990
357801 696824
318994 437178
273297 760650
651620 418471
642328 168849
866149 527606
39879 432691
702106 198407
552028 84495
536733 612569
840916 268468
661621 378010
496191 517114
427622 836464
14853 542449
921035 815788
915585 149285
308523 407849
233475 134176
55318 995490
954983 497914
606981 25402
905559 79527
815727 970197
741084 731371
900412 70363
671548 233951
745934 666259
337847 283903
318533 139870
940797 452804
14730 800920
532477 193960
447166 343032
98956 751860
552129 402525
194370 119472
517674 124285
527786 790845
288546 457693
964415 934981
547560 836453
149222 353138
243722 412512
119013 44823
800572 29852
169756 811310
129381 377761
766319 64866
328958 904902
362508 333630
487034 164551
766117 114451
437479 283563
363253 298157
765664 567608
631137 955552
59932 443459
950552 318691
289185 870397
786086 234524
850656 154674
407959 302972
596955 561496
267881 109599
909841 144205
412661 372298
970113 726000
144414 457705
39510 29891
880142 114576
517203 955194
59488 846190
885937 507193
413148 84689
243829 586560
94426 203609
980115 194187
910583 637569
218841 129408
959704 422759
303222 54398
179677 880336
601170 726538
915262 228737
507530 910521
79377 685689
243736 607262
342732 989332
258896 751271
488160 925927
441888 695952
318845 168668
706455 985306
965357 119023
691511 408113
313701 850526
34722 885878
894731 547340
507371 359012
686429 586798
975890 527111
108805 343002
621543 198836
298541 656997
885509 890842
125180 248596
642542 810452
870746 58794
970300 153783
20231 761260
154431 920902
373389 656906
348296 39668
670958 487128
636537 169034
731186 980247
74364 979540
657058 924900
994611 437526
905946 572709
621928 836270
313820 174183
746878 965452
771202 139002
89201 875360
945785 24482
771571 154615
457480 144465
766137 552111
984532 830634
65086 69668
577897 347481
642534 149330
59671 740993
129926 139385
467939 402900
920383 178712
840468 209326
50249 432791
741078 985183
647139 134391
428519 268489
357922 89236
323476 626487
302959 24940
303020 308064
134251 612215
731406 383223
199077 995236
497787 810873
607479 905797
712392 934827
636985 836177
323320 800847
513000 969661
954766 109467
228387 860838
436404 537694
333210 685964
706106 736750
437299 980348
830221 432403
377931 64927
402936 909724
616478 213551
950133 228571
79346 403304
123762 518045
755262 522551
109384 746542
263289 338953
58983 606144
94820 308517
910154 462216
821262 303509
914712 324271
881000 318748
964765 343179
253969 158912
427068 123923
323332 840707
19496 293146
14801 477094
761884 930217
785564 966033
830465 188939
362872 189257
885679 89417
114872 64591
791300 209250
641880 617306
989866 905388
627089 711347
676483 516799
323250 542358
497556 124631
944649 153595
771463 178618
567244 791768
905705 860459
353042 442341
800945 228708
755823 78971
522326 762075
746494 656925
851244 900241
218306 900478
4958 134032
492021 740803
45206 338429
521595 14431
69936 263703
159657 662501
542058 557529
726545 511384
586810 597027
343512 183554
641572 606423
516916 343360
676380 845556
154787 173538
631166 567134
964756 308851
910580 288352
60025 934805
830789 99298
656598 636566
786120 582658
910416 278833
621987 343190
477907 353793
800685 298912
487561 666591
760960 378138
164185 477321
959318 119619
44951 835574
751942 393175
269079 247960
885999 636428
14668 428731
801908 691548
227945 631393
586586 477781
353061 458346
283700 478371
252932 208624
4552 541940
149771 69855
179291 984781
238632 243742
730970 810234
716764 388149
975717 542762
528067 547203
686330 711879
471685 786410
527361 447979
597085 860861
969751 512003
468371 213764
59946 691433
637092 25180
880542 407510
761584 342784
871067 498061
308089 876204
661633 701331
347838 69392
498589 29676
806051 492171
925860 84358
551850 214233
696302 367341
109440 815279
303795 840449
900639 647087
194006 786275
801162 413225
422641 348615
955264 522131
382892 159194
134172 641893
576982 123853
442604 283251
686763 30176
781344 264192
30438 552120
204166 845289
223143 362541
721648 890460
989971 393572
452259 164807
203945 204326
716687 666178
30433 940265
710996 925091
716388 959878
382916 965505
891172 676601
437630 124111
626556 462893
443680 223470
984565 562580
492556 293962
606537 925305
715418 243939
218580 672077
910022 512875
174416 214150
334115 716669
766471 576881
149439 104202
626369 731507
558243 667063
387722 721594
727724 985018
24812 949761
686699 314196
934811 149429
994095 229312
407935 403126
63863 591728
203853 860873
731485 124566
890079 910201
284042 651415
576723 741418
771055 906071
556439 671643
437492 164232
676467 765109
78829 268751
333579 4567
119405 120249
677039 273026
268806 572243
721031 950272
383644 74520
233762 717363
646415 731517
904922 433106
233630 278869
318725 154774
736831 676642
682044 308612
488101 347982
969590 597453
148988 537547
955337 582182
412527 408065
841025 512290
293598 985432
781103 909890
840350 204861
9891 646662
800726 522577
244151 970105
886131 387806
174299 850932
969701 208036
835531 870942
751002 124436
721663 929982
428173 234056
89240 701132
875429 765871
258299 830562
890492 303373
572902 497356
656728 138740
184447 138933
955090 606775
164345 706450
562181 357744
328388 244288
720696 975285
249160 78818
681130 820785
577118 19945
248515 841249
860533 229238
835929 318336
781586 895370
656618 761312
412066 273745
94596 965671
880795 298433
955950 173504
19966 268983
740913 602104
542463 54773
741782 980017
687230 184054
109917 904517
128998 582677
671897 113888
800580 328541
218380 412824
293492 622182
766248 15074
770787 358672
70086 135105
786025 59798
94955 960263
418277 234471
696681 249137
536983 651523
347745 925959
322657 442556
804922 357554
890880 199498
989775 551950
373108 949651
254300 805946
835793 741337
268541 730807
238862 9910
905867 950587
890731 363509
89163 692024
736192 144611
104822 582839
204055 10622
477446 204356
751316 353449
4465 9979
576543 139333
114647 204828
547750 218339
99866 74883
760501 422440
725976 432867
100367 611729
273477 69283
138672 682503
54495 328684
264052 224350
64641 686174
353391 959928
786143 521863
239149 343849
815557 487351
418181 452952
154278 388509
393771 497449
795969 477915
244336 801152
154090 198487
442692 158961
612615 821266
711767 393202
348477 358422
949895 552932
109854 656709
298318 477282
761193 736743
164180 746085
955607 24616
631060 29769
493269 218843
193740 267751
955453 567036
741264 274119
970644 15499
5435 910327
149422 268611
601883 487268
586704 680939
641327 323143
243358 15329
796119 134439
487756 313869
920316 239170
527290 472911
746273 950297
457935 522217
845323 323207
597854 352557
730573 959812
398599 283818
109606 632210
870352 438026
352785 119588
238383 478037
572175 572199
55525 477521
855613 979958
188816 805473
741628 164091
512530 318353
746563 874756
697522 746449
562307 686362
517694 546957
546803 527395
168783 825875
682497 950064
726010 830541
815683 771258
243790 79730
677246 188941
338521 244540
881148 701535
238848 387882
268845 522312
950163 467775
273521 597337
164319 756924
278748 706412
303405 89663
114613 482538
656988 393087
915154 855101
537044 741148
258417 403109
860816 542278
105193 169074
835477 259166
795950 860735
780471 224114
731517 9650
393114 547149
403578 79964
218929 954967
328318 711181
850600 407876
656432 433126
846265 343495
861060 79039
154026 457770
536852 750912
700939 79162
934353 904659
676570 935498
786220 348071
771210 930614
149973 547633
691881 970014
910645 99570
960206 727116
104670 935636
910125 219286
333068 661583
815296 333260
531864 901792
825450 343320
696347 542712
781502 19564
278675 402615
303165 731262
636250 626709
98925 179914
84597 542229
179551 900227
79274 801194
357829 960621
890924 482728
29602 476990
552778 388434
164067 582862
925675 358016
447588 532284
124895 19598
666707 602391
204081 153971
522342 815480
661611 100080
253162 468026
701574 14878
406994 771030
338761 880225
785800 208775
139407 168804
193642 716691
666334 89306
830897 352792
756270 979908
169082 661300
631576 985568
249116 114572
482560 979484
203686 512173
334125 387848
274097 801425
278857 517236
119185 929597
422680 656700
735445 656896
865701 771626
895232 274126
736537 487252
238456 334060
612150 367807
571673 492679
651581 836016
741007 587161
801329 253605
975744 174476
183903 760659
69913 453230
393612 348771
935423 308684
109974 577166
904911 681721
328277 164135
995020 602380
223191 567350
895187 601538
651099 343062
477301 821201
348058 267325
705940 766494
965539 576878
423003 333375
939857 373347
980307 358691
562444 119368
840724 59621
98668 637069
621525 100391
179759 885124
790095 562770
5323 905535
805923 691554
477260 34467
895386 711281
487821 431846
149357 59762
209542 100158
622466 541432
895989 457756
323703 308254
183372 154506
527180 343493
99116 402885
94362 621690
736123 383127
587412 939603
526897 497512
468157 576995
273464 572072
886034 696301
9996 562531
820843 9410
278016 621867
44030 238993
462885 765765
39018 726413
711283 164173
372967 373734
767037 667104
338315 721658
861224 328222
178689 274253
208869 317912
542741 477278
89429 930108
661382 322700
15448 74581
995141 536563
457768 656087
203740 806650
423400 154022
940466 776234
99939 671671
373034 89474
457348 69862
795565 452687
164579 9950
894654 491730
891073 875255
343237 995236
258197 805815
173945 228723
830724 707061
422605 562198
198932 487154
566566 577655
437722 258987
835642 184206
751372 322301
780752 497040
318220 949864
84388 676546
143959 174189
99768 288633
45424 79187
562236 80442
557162 740762
831546 566969
631499 258750
298439 726949
522599 343405
816009 417062
29430 383554
512486 959971
89355 129231
974535 243975
680727 651362
363500 980489
816643 383192
503050 666474
910017 840574
507666 328654
79608 25416
39661 223821
646852 647590
144896 682098
532107 621676
989790 786013
826279 353449
343802 497502
5225 935850
800618 64673
532172 223366
706111 925519
706739 950751
194398 790616
243505 851024
368210 989887
60097 149674
274156 646767
427467 950339
228349 841317
641538 572445
576882 855533
327878 726671
164753 517296
10544 512431
896080 522364
308471 920256
471963 975739
109903 969225
75130 342735
78943 910679
890361 278981
800999 880833
218440 318016
567194 59302
666909 393141
811914 830784
661911 994859
735077 70215
34834 730922
303948 507565
571201 512362
163741 527743
904656 268344
20190 676575
4960 462051
627378 487512
24847 517453
706624 104138
467988 686873
934940 20253
60091 318297
645942 24671
223881 358316
183628 393633
492340 900441
945401 114686
577307 208619
184558 865974
99584 955369
597011 811201
727076 626877
551760 119039
586676 254392
895787 507330
806238 885405
482914 576982
571994 895348
955275 263897
675701 492767
288933 268543
641240 443470
656808 672252
198989 203644
153638 497936
428850 118845
193747 617265
537169 930629
19871 302801
40506 651757
44738 756465
472624 10259
338136 816326
885430 428070
508234 477430
831659 45654
796092 825444
362800 477756
4853 521968
139718 99785
830518 487141
914782 836098
945042 313716
49962 661177
452720 989965
979685 652219
805570 791341
178834 183726
263678 292227
637469 955301
59929 348272
855362 303534
542136 566795
343014 691809
751268 512198
263630 736343
317790 686808
959489 750542
622156 412673
303483 845857
661507 347951
30599 611383
895283 657226
79743 915087
119672 642253
780509 49972
372603 502644
492357 850200
761333 731241
144816 736608
616874 900141
149186 945450
443400 89610
780822 363645
860671 945123
895029 582046
940852 531938
606918 427601
661922 860956
90475 915220
894955 866056
139593 591683
393301 955577
413709 552421
427715 382752
352991 447994
740379 119521
372529 850511
805902 99723
163365 910550
193736 319037
915158 711724
861365 154148
203686 423135
900690 796449
995309 418416
413283 990030
731991 860811
293595 790579
337578 40389
293713 452094
915048 403488
820319 825165
543023 134271
905653 989720
576706 949514
995688 253503
770906 716664
582084 840793
531360 636488
970060 606712
224090 501702
761150 910398
393342 672128
950337 816363
547806 377750
925559 393406
914851 556641
189569 437026
422242 89338
214470 785983
278845 503163
88880 934461
508087 199185
54282 945075
283594 735624
124879 133729
766355 318562
263755 581918
910223 890038
870263 557040
253455 895606
348309 622078
666095 79507
383192 736830
656727 865762
442760 482214
552890 716301
204057 333272
258647 656572
9697 756154
846095 164002
168560 129605
691739 960335
79781 676431
791172 736698
746004 75768
750692 139731
526996 979612
975653 855558
144399 522329
154485 642058
68857 661311
65347 950943
69510 99358
348299 74440
481798 123960
582403 68929
99034 965451
129557 731773
945692 597207
84503 4878
695854 50104
601737 542488
606663 273499
94729 318036
597145 736589
238861 979918
353566 50253
686399 944901
110296 154245
503656 701790
193914 347823
567156 222791
403537 333147
716727 661651
193910 602145
19768 392915
467351 273268
433013 681941
229175 516900
527790 761688
403686 527647
154418 795369
233387 596588
388331 592044
800884 193987
870894 123819
59624 805987
696366 850329
164230 720895
921056 49828
577782 233553
518093 721267
503271 940202
761388 49914
731491 224501
681900 657152
556769 924970
960180 606929
9939 910733
333144 702240
610987 532681
358040 448087
920954 681052
95008 462575
347973 104468
5830 600643
984650 228646
755833 741505
861010 532352
298431 975152
851353 209293
482638 880615
865293 721386
447856 840635
239100 169646
621576 34880
985461 288855
776069 462663
532224 208959
49305 203920
924617 174575
567180 950268
79407 442432
950488 969584
791324 422475
845255 238595
64808 502108
273379 731420
984741 218986
969803 428263
129748 691766
374158 407369
970372 442789
994780 124109
686667 954885
129359 353401
880403 94293
850624 9380
438274 383406
203940 447655
422947 323971
124748 895572
403011 119580
596689 4849
328255 760924
775534 283450
60274 696756
587127 398138
766065 164529
940322 239485
273250 412612
273172 59855
397711 846245
428023 577578
368778 646836
969804 870644
761466 194122
815616 109729
969865 537056
616690 930489
920591 278709
482368 865611
990166 821089
263286 886452
920992 343616
900529 123558
173596 890139
492479 805926
681936 954787
258244 94131
551268 223636
189280 766558
542873 547547
687007 104367
736037 456989
815628 19681
771063 711132
850457 925850
964863 631780
531857 14541
313626 44755
995040 268500
512418 322860
925746 621910
612589 437488
830776 14579
691134 766560
243267 49572
322844 232833
691951 696164
954817 820887
886263 213570
796031 353107
99198 532516
457874 398295
348377 9852
810370 512342
49922 950602
318277 527186
627293 347247
944790 647081
69610 407769
866103 318117
89772 169229
710690 730595
641713 233920
472769 790686
989653 123905
353047 427982
69807 646915
248167 924890
820798 696710
771005 70606
572292 546871
700561 382985
104884 208432
119943 990378
561822 418501
592195 880313
79410 989801
865147 516403
905236 328287
288741 994717
726865 14494
417598 129235
881059 338273
721935 482840
457793 264490
900511 805637
761275 607583
875279 845433
452741 447566
372923 482417
193903 735938
422328 880862
690894 979678
676866 795414
343031 527108
995341 219381
363319 801269
353317 930140
566999 447385
149802 671956
472345 24883
865666 562041
503265 243441
706382 696313
915520 154763
881018 547804
905802 935219
666177 691384
407945 333470
25405 20840
268550 30023
268295 278870
358647 915861
493380 930656
426892 467465
826074 79773
104089 109308
955083 601949
55333 751341
258555 208812
173673 800770
397630 30448
527610 641593
183996 402931
741464 512351
566642 452772
686629 915867
686240 681638
387260 468101
831446 780754
392836 149491
462431 875024
453113 483048
14481 507671
692015 169828
412971 974947
313840 387572
851191 760610
25377 840681
453127 402965
632186 34757
368375 950694
74766 826159
706365 30845
114262 646846
945485 990551
233832 462434
840352 79854
656043 164339
900960 441944
173592 243182
711511 880484
29794 343440
984713 856355
64518 929902
880238 293390
965001 851268
930444 747306
780846 34236
159137 984827
219263 815826
278526 686855
939879 273916
656731 567272
701298 472033
303796 353113
402526 547053
691225 478170
811309 930727
676127 572592
591646 771186
89870 955212
363583 253762
567372 387836
274358 890883
263519 277685
741109 293540
810920 164450
264408 945157
462229 726829
721611 761048
805618 507627
413341 791264
696216 74165
368639 44929
571807 163967
816441 715965
214063 294251
915731 632113
327675 159940
625862 493247
14717 318323
662287 497002
432953 69882
343537 666798
900622 433122
74714 745933
24921 418227
60280 557237
697036 129619
796423 974913
771397 387897
79078 428243
671394 542087
911025 263444
423024 975315
651708 646793
795951 537084
79723 646845
830680 900813
69164 945133
801085 20367
392926 979748
537375 248418
979937 829968
940301 219007
89669 771113
979566 19941
149862 925231
129350 975597
950129 890460
915188 990281
244694 372919
243991 502215
134583 696011
358377 148574
637402 189341
691708 49752
218924 40329
258419 582038
213808 39715
905867 422599
935663 781774
869973 322278
373090 143813
338687 850735
184299 110190
25517 930514
263688 791171
577355 731624
179262 209461
527536 223825
791283 766185
134406 795743
437350 675577
701919 264012
896027 238902
726165 612286
453216 935377
607391 915082
10623 149641
954909 806035
398473 527322
512649 527713
557176 343932
537658 950751
59349 214388
452737 502929
99353 158620
263729 29666
850915 298628
84072 113523
726505 517688
9850 204038
736192 462136
234111 25098
531957 114045
358075 537912
801888 173783
925682 488044
299348 791151
831255 676885
531902 99333
836444 537591
617153 54954
831232 462491
974662 299046
462366 771099
164251 243504
800931 432369
218275 512736
661288 208789
452678 24808
388440 194448
566718 731707
194290 228996
388211 652505
825842 836013
950441 343582
466941 920821
74152 398231
656193 680969
273413 472709
138405 885466
69822 964908
606860 845951
63651 696124
691373 706461
536869 243621
542176 19591
736438 571768
562088 691050
218181 368827
293539 149041
720841 218784
731585 840792
184173 481640
641459 412591
791339 950326
328473 716226
581315 438290
169508 114384
725763 875617
79522 487465
840815 229797
243162 323481
14679 118887
930211 368469
960096 417822
756181 124285
532434 855659
4678 159274
478294 123974
607463 298977
666814 955143
696039 955649
820727 328706
228859 194193
686196 154572
716878 547168
438266 770691
646576 766584
39652 990587
816171 920190
244589 229618
422011 746622
741554 736452
507762 587400
144955 969773
955431 387984
502755 551819
666830 408046
617142 786545
651135 780960
984987 463170
815991 696527
104731 159076
746508 507620
532727 477794
114363 537278
263422 702037
747100 910652
139134 711550
259074 587010
94667 104906
930196 174008
243298 452193
502686 55280
561885 681845
745471 348962
323138 885523
154207 293229
576876 214113
423067 183439
338968 323002
910683 388071
731390 969913
348663 427869
188880 572310
855906 556691
139929 945238
507266 576949
776441 532880
34913 636868
641736 50073
990361 144697
950264 403312
408546 994744
173774 323422
128972 826858
304108 875498
945788 930481
696437 631278
283135 248813
756746 15110
861242 491850
358709 900542
293402 472315
178812 407711
338334 781652
24163 312824
433135 383427
561983 805478
641918 79822
40619 950779
955820 502641
662107 587594
556891 124292
686673 258872
552098 293323
786077 671226
5163 473241
576542 796588
79321 10108
264057 383412
144609 541617
894860 681114
472838 577627
731588 905453
358075 59634
706389 333585
402467 308596
487315 726015
412831 896038
791679 974965
776381 711422
110175 54050
313004 513040
273400 517444
910682 939746
512539 104658
363288 89772
870663 40175
935687 144496
532213 441948
154812 645987
895716 34565
418218 392728
994579 333242
223739 930509
806107 582002
517795 886277
612065 199076
50348 641834
119653 407409
820791 760901
611885 233431
194194 168836
432401 865706
626970 706789
88597 502648
622723 203252
586927 796271
24802 382303
49184 861111
5497 621576
149908 84141
432914 194799
60047 527405
711214 69561
34589 965134
885397 357910
59797 94467
969934 298880
671827 139443
382931 448441
140087 537485
910493 900422
995186 637524
368284 766378
517634 994383
263892 99228
839903 711229
134741 561470
905227 786409
378411 581230
745975 462739
441755 363664
875314 622079
692003 890577
666913 556354
432607 20113
980271 711443
965655 4867
333422 944878
835946 970255
407928 715919
641592 805569
253669 945251
841035 69335
860524 840557
870924 278800
890058 273690
756525 710847
924936 935356
373006 746303
278428 701577
651259 164685
676099 855326
617207 119309
203273 865612
681897 233560
273511 880780
358505 75070
448022 921056
487192 114570
288700 338908
397727 726745
482181 203244
596481 656315
189155 328401
603247 895587
14505 700564
383374 194100
417792 602137
935541 447431
910686 293406
716178 597557
378127 572220
4702 119846
616331 183422
756688 234400
54406 213480
249072 646779
30640 935229
562188 268265
825270 756458
920014 766322
248061 746634
418066 487764
402998 228816
771153 313193
343591 249353
577091 14950
571798 79911
511854 124752
74226 516895
820556 253008
712006 54634
984346 13995
433665 776374
273299 248772
553215 806179
850941 731822
20191 29601
248753 283357
551883 159243
553477 840374
383545 761763
627203 526737
690776 556688
239247 815842
433276 179627
667209 780917
438129 372795
353225 313531
989827 114198
48961 423180
373145 54542
129393 512818
680974 880486
363590 129847
656337 9347
846268 64289
532943 154070
920149 975072
178924 482561
488110 766304
919787 736785
74836 785617
447814 154589
441724 756134
233714 800537
309270 189282
467697 681621
636925 528294
781235 876031
203768 561653
750730 954826
462791 438086
806595 170039
15184 994123
467283 870956
253941 547826
209094 149198
15139 975474
328222 279094
248504 517684
851247 478050
761127 298378
219325 442534
781469 124728
412544 292700
865894 203628
372717 810618
447677 40010
955394 462001
79630 178842
352832 239126
582840 30818
647741 342897
571232 472404
472918 572076
790723 199520
826083 368626
826481 526974
780570 801237
547475 173827
641660 65093
621152 129884
566968 158779
55291 756076
676006 616866
338016 368044
910044 204056
636974 224040
717225 771201
542042 254393
9984 468148
244353 547421
875679 40125
717131 223997
780912 462863
378269 830985
169744 542675
900126 303659
357926 29567
447562 35086
472509 328118
745691 219389
517948 607729
894649 40235
785795 95210
606590 780887
272965 616376
65377 278657
845502 697377
298523 69521
219150 333072
651790 900632
950430 437861
20055 507762
209094 547632
826304 865310
910146 273552
203401 209339
373542 313323
517349 378807
358538 133883
498086 949808
910386 223963
970052 303397
537217 558067
224690 905737
531629 576907
856777 259049
447774 930197
164111 845741
866208 104466
652395 935223
984852 939977
328264 661775
278058 950853
879360 139033
612327 169247
556403 318583
397712 671647
347342 681727
647419 612276
622036 363320
696455 696523
497604 478124
458473 940276
771475 189220
597206 432532
616546 20286
203861 870778
263743 825010
110024 169443
656640 209435
835269 169246
816579 870747
35521 850782
79345 785599
343227 397776
770674 656936
730901 14890
274061 541816
228593 542298
785983 327895
477713 213115
820399 980555
44692 447833
328577 467658
243353 427963
626985 377201
278682 969813
317987 682041
333895 139560
443375 462823
950749 423642
826241 940369
512794 547390
179425 104097
359052 801431
198962 383155
274208 393499
930181 318339
139157 895006
646623 602015
577012 954779
656816 443118
915434 392815
741160 378527
760995 84301
537885 587041
642030 720849
611800 15071
442803 478011
557016 845588
780998 84898
493059 935911
253357 183763
378034 930739
601802 885704
69050 835184
746084 939374
362941 20497
949964 249129
279536 347988
546879 179357
467224 382012
537434 617422
283707 835242
910234 30040
860490 119151
318423 691601
183712 104597
776265 537234
667181 59555
741620 298675
801119 860965
59313 34729
342963 408113
989947 432747
656343 806025
243605 118835
954926 363858
925518 477189
89450 616901
716856 935089
178642 239125
129112 49599
666393 756165
428024 780921
700681 746676
547766 279304
816240 274258
855485 641423
373126 770710
880962 109824
964539 905859
836346 507872
547277 184908
163812 970990
19586 35318
433301 457262
786318 382831
621445 288457
448066 477964
69925 249145
118924 894951
258501 949465
268474 911470
308792 955129
914931 716529
164344 955019
243849 134253
681845 856145
24952 472038
866052 672092
293945 5144
523194 437995
383772 681465
770746 363231
970094 731563
179544 403934
253709 423020
671395 910200
318480 308436
269687 149839
597415 816039
10683 64513
189340 114312
855352 949787
785274 935377
696295 188841
353550 54970
562316 378452
328861 34745
785939 786627
746229 840293
30373 462653
591899 318506
517733 562376
959831 821170
536939 94699
666594 612195
34891 795912
443155 860357
695931 487535
119217 870811
890542 223288
592064 273704
756175 706886
343228 49102
880928 492532
168803 507205
906102 249112
264158 726837
432740 881100
174385 741293
243540 681824
69744 769981
835597 134227
69474 353399
577010 259104
183997 662281
258461 606362
79294 348592
14167 99564
49933 307936
392851 179541
806058 307924
646861 661576
950404 607413
666854 626888
721508 741375
636730 457675
506967 74721
975802 428216
646334 859760
930542 980039
830967 576585
75044 34174
791033 124443
54604 522313
756673 572125
826126 556692
671805 696264
994940 232977
970511 338853
298829 14597
622196 169530
4684 785843
820198 740687
915367 308647
342873 766687
208531 517298
910973 358618
562646 150127
636905 935691
527223 378402
696353 253584
885243 487684
552042 54506
318372 836154
741002 810909
314178 219024
730947 821038
676262 632084
183527 696092
293180 647348
194879 796189
547959 811356
99360 855170
94293 677174
403195 725749
851022 636819
527256 507339
248324 527813
969534 452403
307985 582294
14538 334455
557440 253620
656980 264111
378279 99170
273094 39476
900312 184181
965214 353012
145041 602366
472997 685979
74576 487957
741565 527579
900389 457588
586239 239159
154276 780795
407632 935458
342388 910245
482313 333734
284289 567298
547888 29302
233789 19693
641268 258316
472575 740549
78715 711750
353094 566473
313988 254259
39736 403216
93838 551933
919891 865881
964901 925080
665932 477711
701435 880151
756541 243876
885159 402550
218744 373582
975339 253608
463381 59773
213834 303633
588049 716740
900333 661611
607017 253332
368041 208738
701327 647324
531999 627100
9905 880743
258606 856234
482402 811118
497749 826019
447724 745953
194646 337350
577154 354102
801279 437660
54868 482825
970470 138810
298601 830514
269101 422991
532084 995063
79168 612144
820817 403011
397700 934707
508053 55528
368685 815904
721834 840835
831332 263841
423482 621501
184020 950261
348382 258223
189121 626076
462851 188918
173783 258179
989284 323734
996488 487349
258632 915348
382111 924704
710868 482984
522815 805627
387690 756118
383472 422920
9834 716711
890039 746528
582172 801755
860996 259131
258812 372941
716639 264121
626834 254339
288885 10527
930814 39544
651674 124716
54805 89921
761241 716278
974805 169090
84450 964798
522864 263588
358375 706361
537969 169398
736354 517397
647034 606629
158666 786562
483016 99914
870695 378037
756730 651636
353230 761512
229300 288863
323378 686062
671532 786631
49899 427181
253485 756711
979725 412999
383489 209229
298159 592552
283828 188647
427404 203647
546934 686329
448305 497645
597133 751284
636798 203739
855335 936133
403462 462247
287317 293338
980067 840728
870693 422881
910563 880115
203582 671365
929896 363056
651515 915904
144712 144237
596792 831353
751183 203543
418229 358206
168716 805638
368911 334279
407825 218572
760648 362831
532934 467571
432788 428321
920379 30419
985263 209196
109421 850437
333427 880259
139596 278700
219082 123889
925310 626742
895533 79625
662343 632374
642365 29524
666553 597489
387859 129089
11111 791343
944886 268357
681844 636454
666820 537509
910144 646880
547240 661746
631262 755770
249230 457909
850815 701731
631264 79328
885199 542381
253351 995958
418369 830472
591922 15336
666446 810684
243821 760978
418425 850595
148717 357875
656975 711823
373058 198793
851156 885421
701563 168732
541351 641910
572087 920134
358581 567501
910427 781018
492394 29419
323082 392615
179053 551980
243420 994308
501890 293439
19791 462508
656456 840511
29882 641678
149587 845713
138928 149138
989608 298597
810678 820797
626832 54157
800888 119334
626711 672021
64683 54391
153946 557965
717118 104488
338502 860563
835863 115237
537131 771444
471883 298615
870061 164390
642307 910196
278428 483316
577341 915212
964995 826017
44350 731140
706386 721482
914968 536788
19698 685970
552511 332906
219766 239023
228306 100026
243795 720553
204110 507423
626590 298376
522479 323214
15393 94496
337756 179315
929481 755663
452778 692275
656872 49971
611997 592051
577503 433248
482939 467594
144122 432747
616767 447928
412320 756513
969784 855653
44284 591884
324318 243394
592064 393422
183413 920699
841049 89976
850955 234215
199913 566092
59627 338011
363206 40412
293953 562590
626778 591742
209181 995402
871294 183943
790786 234631
551970 950413
228230 741172
930459 223961
130128 905675
49510 751754
54467 119816
726643 720713
602797 438200
453345 960822
377537 194401
611419 487731
805547 955171
556962 935812
790669 104677
402994 745975
254481 501792
994907 44756
49450 771374
537143 398476
268263 94337
303430 218966
566550 845790
254293 556759
477879 308750
498111 208623
820915 477768
388040 935488
74696 965332
34537 5077
940528 472820
826153 447646
894914 432910
238399 796077
34571 925565
969679 194213
303421 203884
562134 278298
159411 343812
567349 646067
860791 373127
547540 243705
522788 452419
408210 114572
597331 756151
666475 238652
726189 622353
865676 312855
507189 40386
144171 109448
990731 940177
328357 59585
532221 716647
138551 239288
79365 661521
741132 641523
158660 969664
776653 860734
487743 646523
855822 800763
259620 69417
258696 4941
497640 378092
174605 413098
651356 686530
149392 402431
547102 164358
283263 607184
119504 163805
273066 497370
308228 915314
776084 437643
433458 153728
920793 229530
900171 492552
906087 686854
522362 24604
457997 735726
467659 332988
228817 551688
552568 323567
273149 581652
357833 218167
14186 457730
467628 825529
20007 308040
55025 656945
39693 64418
875856 239386
990256 542488
675826 785951
790922 840741
980028 15256
169095 452852
453211 526908
656869 283122
467704 865884
810937 527653
945706 791121
129579 173938
681663 592458
805336 418018
367573 750851
547596 606609
243507 577516
199555 547467
676634 338528
910811 865077
130347 994751
264266 433141
9785 537473
258414 99313
572874 373114
507507 657458
546506 721231
79115 616863
188674 239027
561832 487859
974589 611645
860444 427823
293594 905266
616739 949944
193870 910215
477360 934837
497812 871098
721315 30439
104858 34808
556935 353552
338023 313284
169314 651545
523553 740443
805947 243977
437916 900440
990482 526721
189596 50031
99671 174593
716183 283082
328294 189744
359039 641969
900400 14585
103696 149187
79636 144889
989909 582271
219368 945261
224917 751563
467350 103947
249026 581852
656773 199534
731376 597174
184182 810928
9558 964997
109760 855206
761368 900900
796258 662184
741288 443009
367725 785586
836145 372908
248946 124422
871187 939631
313010 293772
945234 750947
104783 870269
442732 278287
556541 432770
895374 199123
890460 134154
676820 950047
448821 960352
258467 318187
681435 795538
308357 313732
865020 208785
288789 816163
183773 831096
368250 15195
561676 835775
924972 328329
89443 696435
208065 437731
437982 119756
423032 895454
930326 20348
666438 307746
825937 507030
711198 681853
850605 5403
10465 870791
164091 925005
274726 388126
84741 84759
487489 124117
989635 303544
547837 726327
935276 920546
129496 148725
492158 258623
851202 89759
453780 283936
865829 652124
253961 70025
910809 596567
945105 716555
21035 816111
5600 104309
14610 34624
294175 278889
408142 795943
621462 602136
676392 865548
194963 527726
491738 587124
253496 442186
228717 417989
363699 49728
308852 184071
765973 761008
263689 397628
423264 537286
318339 656600
845877 15339
765751 104561
855519 940501
905847 725878
253744 642124
637183 343141
815657 815697
458081 612223
587178 44439
994793 915511
507411 213580
915769 682625
726307 304026
483118 34768
994238 885404
517927 706091
671723 597637
710570 551827
869842 606820
904770 373472
417664 482561
343942 562609
118984 527391
129146 124123
522474 781119
602600 258598
14704 368401
722366 900292
995442 811391
671179 209355
895412 74665
547230 975330
945052 49881
691533 652092
4934 721269
761270 442076
70202 642156
989487 118976
149385 89739
945490 5493
303693 114603
39815 452752
427211 24791
826267 362444
348535 692063
606977 556687
451829 776398
93871 577240
761347 233905
203953 696379
392499 377841
219387 328324
701249 890395
309315 268450
587849 711237
905531 919965
960319 323114
139289 523125
527135 219802
5866 412842
253619 566579
168410 796212
760966 920053
54849 745813
452270 338478
64418 671447
895108 318947
672011 24832
89364 895183
388330 920601
358116 975608
412175 542229
89317 492534
716455 926249
920797 478014
293679 288777
636308 925086
741016 672112
756058 910906
925718 472195
367775 731299
701424 128967
919781 408538
920409 262813
920643 184561
258268 259297
462615 821039
612264 64685
129598 233477
413275 422306
99548 35266
283509 915319
392598 975440
880612 597008
492388 119546
800937 502628
705733 850114
757250 517011
791484 59810
382969 616199
542219 278590
830958 796219
707041 154204
995242 372571
631293 313540
427753 776275
418360 567222
681594 547084
717083 865347
905837 308813
855479 706520
54756 601425
725944 825191
875223 626207
393750 940420
547339 572641
656448 472127
129635 59270
263528 348114
880467 721853
935328 273688
721659 194178
89281 339432
836274 248559
567227 779964
318086 298800
194531 200017
89316 522363
283019 819847
801166 816010
756149 631719
631845 234243
148756 874912
457588 811350
74445 766468
472621 586826
353277 337926
765509 9585
676759 312352
920566 214037
159726 538104
741539 965122
114784 617467
924805 9571
959842 243236
875909 775821
960830 234188
682236 19903
880010 791211
268806 750794
875623 124045
322849 317933
4567 481806
378317 651305
492583 920156
24922 378405
736375 472559
99022 193634
915348 4848
830235 139381
656948 849703
159779 418411
78843 378132
288869 144525
9899 423353
497509 19647
442459 960227
691627 731647
766416 44669
537297 213917
820711 90255
407440 642590
517882 293529
134099 368262
989958 681205
237821 557198
726973 333153
492590 333196
243567 676730
895199 164255
850508 756177
164032 467524
313625 59778
163976 258266
637061 69984
174036 308570
229363 851599
810779 637663
178172 144214
288596 452624
318754 472436
721473 810675
795562 885399
75076 89395
283063 696609
462632 919974
994772 990124
239177 656922
537567 567483
606519 383195
144629 870952
322940 49370
144666 890282
995227 994218
785578 974440
506676 914993
671161 905261
482706 94346
965686 104437
428550 502076
676970 975330
581972 358572
173963 482532
990716 357924
338546 104436
751198 572772
949634 850743
288239 835815
626730 551674
164258 193867
880068 343336
925750 109843
74818 417677
532262 646351
657023 642063
487492 413071
900530 327603
198014 263046
298249 452047
879895 348654
114835 980090
845037 806495
965373 277972
109456 965901
5664 712144
134258 347680
85093 417732
596990 437784
915766 49541
418340 532429
303118 795837
223946 521542
642065 119188
572165 900475
382450 507326
124161 297564
94724 835727
939913 865868
452241 492955
945067 770766
462282 691955
254057 154142
218889 825348
482438 537198
820328 183441
735935 905348
234187 521504
144407 223653
621706 253050
5320 333366
120103 945237
761392 612331
850455 711712
686665 452965
925257 745706
70094 129268
472972 65041
134269 861044
343530 363715
532214 631811
333356 861211
299237 890381
676039 258574
392840 960226
701674 536700
616752 188971
541811 657746
153932 163856
458265 402810
69380 169216
766442 79224
228623 855529
253974 98429
890480 229201
880375 412870
955600 94232
686647 921000
577051 223289
79208 247719
745301 556185
735624 228392
169259 158936
49941 173779
124460 308532
537159 517725
114199 502603
357795 526606
517444 478228
243754 666874
562350 800595
189320 701969
233239 209302
895049 746361
950046 194105
939471 283805
975338 606982
233738 721425
741465 487394
105079 268203
805641 825890
955350 159719
865581 54492
825858 149967
920361 855693
587074 820840
806172 841370
517130 328006
427115 104598
856076 481488
482921 74065
30037 725766
29743 39728
39353 731291
795537 701694
994631 39249
79075 40062
93954 372689
462703 940429
233886 372802
15199 732108
274347 458231
45025 950344
990111 801453
841603 940438
567331 840254
397285 890443
209221 592574
956289 189055
288882 189447
20177 488049
89451 860208
960410 567222
94447 860484
402913 835937
527169 805108
616526 39933
84794 791190
527697 214849
775972 467593
632036 602496
10456 939790
846130 871252
272772 422344
34661 109098
979837 790576
840265 755837
348580 412410
73894 835535
567506 133762
547247 468151
462309 75118
910548 119291
835799 731398
348478 209254
746769 407959
840322 602297
770881 432689
388474 383414
114392 607580
546572 920348
413423 178812
328149 184549
154669 108993
382112 143545
790638 358082
362607 35147
596487 69425
687021 964535
631680 134646
253037 721302
875477 467963
701121 796257
208880 716126
885108 289142
845781 930204
910912 572789
985139 259104
497724 731066
945318 304208
408281 19934
587006 312895
591493 219250
402952 790973
835631 293774
15518 20051
24678 845323
751352 163668
765861 527052
781046 592139
920589 676261
796122 29689
940400 353108
59272 786366
582436 189503
716543 218891
537211 54438
343626 810592
651688 422639
865479 735940
487290 984770
900669 716124
462504 477623
766384 854643
826216 423689
94337 283933
44115 681696
427854 676418
387717 93663
363215 860551
462612 935777
796267 840257
10628 243654
979655 965434
706293 875547
865999 169435
751497 253710
338393 940466
268599 104759
880448 99500
816673 348132
646724 238332
482996 138921
183988 911440
114863 382978
771711 487716
223152 845754
110211 686488
815842 805124
980280 512146
437337 691968
626737 880269
447763 955281
507353 651650
214262 761579
716443 397981
243668 243831
193844 133068
546573 432769
865363 507447
591311 661350
602008 333948
184578 337778
502274 467317
557695 701316
781020 890611
577260 880224
825458 124018
492062 656978
238615 931036
612675 183941
761941 582129
95131 338019
841147 189089
537616 836068
551836 49787
901035 323515
885728 228710
452719 298215
960113 920514
889624 183749
298884 796960
358002 760803
472843 795931
835772 69696
930767 189475
263634 910512
801923 606883
939643 696605
134438 866125
134157 34517
741273 457809
577085 612047
850485 229634
283460 572150
283847 746740
761169 259478
870005 567421
781262 507496
228405 686845
99360 935942
34499 278798
59877 243423
218372 567078
994395 557395
194625 965602
279258 218642
407117 468257
711695 442764
990144 577863
980628 303610
900076 129274
750920 189560
949449 90096
885786 99504
362963 616496
198975 652109
835130 322884
477761 338588
368911 845672
148986 362963
985205 552060
84386 522625
393655 288360
930848 766170
154707 154455
557164 696368
377609 68947
497471 189593
104152 606906
875689 29648
149641 726502
582363 328120
30375 422318
303254 273057
59906 104942
288300 313456
377779 213860
761425 875876
124099 915351
551884 343615
69549 363195
741279 427282
637259 915066
243679 253676
467225 348245
154929 681410
512113 770489
263013 707011
308047 333264
323836 104362
582289 835972
45054 243403
671137 367980
731461 652088
443008 541911
820947 527699
188802 726696
542987 924855
472334 214413
143854 975279
413250 601792
65059 716224
606189 746318
183879 985364
19735 428153
944982 224956
193677 173913
213636 94995
790931 631756
924511 995384
811448 571842
487752 438136
393518 811195
497523 800671
835787 203995
249057 268211
183521 228234
437661 159023
900197 791133
472220 856091
557621 188761
4920 969209
39692 437213
432742 214481
756238 417673
755861 850494
522313 442589
831160 209486
144749 348596
582442 14648
308131 771748
751710 20124
676556 64824
701313 368399
541534 332819
548417 522932
433068 686748
198314 592290
562408 661868
721571 965758
348240 856231
845229 243541
373068 248647
368925 402814
477977 561731
293424 49315
537390 15093
771381 422943
965131 144796
700910 656121
532940 124577
243928 925122
960370 54364
363444 671655
711363 561702
348647 140093
552475 308139
134269 656293
4939 939947
661966 642102
204137 925745
592224 969798
123691 721311
775847 576860
994757 104033
905646 566663
328732 378743
427320 682291
348581 929851
612294 657390
353698 228741
123936 104264
820973 169735
891528 845671
552630 114148
287672 373391
741272 830822
527795 557028
144057 836494
50127 964602
233701 442486
607097 388271
49654 761626
135088 298088
223123 353647
218751 105273
691819 964913
9830 656516
716495 44664
985390 29820
462675 721584
696653 273021
556921 756465
940082 442557
227567 168330
467118 140091
919622 35053
602228 561819
119204 253578
287577 980574
939751 512105
493100 990056
995452 158683
597752 407842
388091 114860
85204 745962
821110 493090
24761 477261
521749 238796
418068 194786
671900 845469
855862 541698
890658 825395
925318 238720
900271 337639
776178 959961
805446 388055
611425 985093
821112 606928
15488 442828
308397 433246
153931 546408
686826 636957
433421 761223
248574 835535
626330 695659
343072 572410
990410 471857
672122 681333
338425 497600
935512 59780
910560 860552
701693 178412
701216 606948
691224 427984
830553 562858
920145 322911
238681 35726
700958 192841
935465 398218
224254 253609
960345 353546
298550 407516
103983 328753
273254 343388
950864 413158
815965 407720
203313 691412
527090 253864
298337 133899
845056 427979
552666 362881
15326 432440
820434 382602
432137 710834
263728 133284
304009 641949
950077 691368
571951 646875
527568 741517
786248 577352
412541 9830
113860 676357
726366 452965
199104 765990
835690 810665
735991 258415
875894 691613
546869 542176
139165 327957
965233 412924
606764 542598
313782 935782
970464 4786
143920 153483
348185 532200
372795 631144
800367 497459
561315 592720
815509 532507
418262 880407
258547 677380
298827 228828
35141 59519
860956 458420
597047 984607
372620 254009
905503 442505
284083 682078
408288 825390
901166 168918
795689 467503
661943 317663
477987 407575
771303 572152
357565 805937
830112 338507
268485 492169
114926 457708
482340 80085
263884 741856
880614 303198
49471 736126
840580 491838
173901 124784
830888 656576
213824 796184
835181 641893
866220 69887
358356 905655
99181 184052
100438 133747
403131 672335
646790 154416
984937 323626
247916 870888
646616 338821
397485 840707
114174 750860
248857 99788
834872 9728
706741 945909
19673 4677
522367 542374
14960 383552
94650 969965
209124 179036
786405 770979
204375 940277
144282 322910
542030 159559
443074 676457
567342 303047
124553 920359
756842 110055
780518 287945
89720 969938
248587 656740
357826 352881
34859 641194
389028 626835
432945 920572
646582 701393
592341 94858
587403 512511
95297 915565
462786 895382
467245 80318
432484 607278
572009 123519
253626 537369
637525 63880
980381 507381
995139 502460
159780 557687
353417 995035
702037 567552
865025 198494
626766 617149
35113 24934
143545 268719
805582 283931
462167 517500
547790 298214
586744 208651
5453 34728
353030 731859
362904 786056
841034 248421
637013 174476
59544 502898
950304 626480
94097 989880
990284 517024
890945 149258
466967 895545
243978 954971
930071 89824
940350 676395
915859 218650
950915 527681
716699 288867
457924 383466
184176 602076
791040 24843
472398 612035
438257 985340
637444 407929
328772 701077
835857 637078
661322 562243
960567 915341
875319 566639
94792 850608
502434 413194
487360 184297
439073 666949
4600 552509
274275 239487
571764 269126
159237 422943
73993 437856
59874 910313
163744 865337
587009 198661
492998 428355
616879 244567
323716 532888
755779 139668
214355 721463
731139 69457
273662 791201
642230 716322
89718 254044
766240 388889
238787 696019
506886 9725
676331 24883
109393 427853
979456 55193
44826 318365
950443 24888
432830 328329
213845 183761
134249 646138
268356 34443
203978 542348
611403 586864
29428 233729
233543 313084
606623 576840
711294 686566
164530 144298
233728 821019
59511 735729
815953 592001
945261 786093
113844 776567
134655 736566
781436 925453
657017 423157
312937 258034
253110 457210
880357 855327
238270 50119
741523 861069
228780 268967
224063 989960
357810 775895
353790 218265
15056 188805
502540 372562
920376 920691
915880 263510
79567 243964
88860 179131
34871 592293
9663 393333
104153 378315
855915 606871
273880 826020
865873 571867
746891 268105
820348 223531
672009 622244
393187 258340
552256 68888
398178 338890
463292 392824
74644 328247
541881 418266
691236 522329
488104 576830
39330 761460
69712 985560
418015 562386
741691 930564
776593 905019
452776 412659
592016 243951
924788 496875
934917 223927
437301 392368
193497 59615
223321 606743
114759 666920
328339 84607
74205 800719
158769 765893
994509 939846
74395 662241
407983 939863
900874 861126
193810 342730
930605 631904
159092 119404
556671 601557
621665 612347
851125 282921
243385 154315
39966 755825
869946 586030
178799 865650
676833 497062
353030 88971
149310 304096
756878 338571
487410 472574
219480 109803
795294 691634
472198 537216
945434 795561
656450 388020
766329 646784
258694 457570
636416 760928
761553 9790
756239 582079
776014 458043
731313 631897
950599 144386
667171 914942
980014 532198
915114 239142
79961 318748
318425 40300
44404 771721
159443 358443
661056 452950
642070 875951
243738 820581
89657 154528
571817 929884
159801 875697
268994 20341
229238 318336
891058 725563
239310 894708
338536 563132
89490 189844
602058 174535
523026 79715
755907 477358
462699 950634
492647 348252
905417 413394
516925 586546
163556 65203
541547 612107
736053 537364
845766 950098
586753 448342
299069 616339
84226 432751
313933 363700
304115 174708
473355 149664
576893 836262
294078 582456
910722 298565
433156 363259
821657 915076
328688 706601
875901 506947
880207 586901
935457 507103
791589 537286
661841 831554
711047 5486
870541 248165
497480 248065
770841 751831
791154 154258
124482 850341
497608 935512
218371 657275
596993 616990
646523 9892
661673 567255
735955 189018
621829 10440
666251 766295
621896 662033
592126 611891
994916 258653
666477 463040
542249 309019
163591 617542
233265 955367
781068 54015
939485 686051
29414 582114
720809 164102
373163 14818
880297 472775
975850 577214
367640 631886
950467 427262
423095 338210
726166 652398
900923 114616
716504 333631
676924 915255
397849 636535
85141 397669
731655 467812
223729 835672
537469 825907
646994 725911
890071 866114
452563 193909
49887 701486
825420 398524
795377 761479
368130 323910
293691 303391
402684 795902
104596 119610
452791 228920
561948 890338
761363 45101
263671 79305
632311 915215
44683 571422
353284 796199
487930 154359
672388 935405
493008 905919
149224 452281
830507 269439
845131 676680
686399 766087
451798 621284
606718 537104
343542 483101
239228 30037
438324 934629
317632 561925
806721 631669
651812 920063
214409 313977
860843 388588
721537 59571
25203 920563
79830 224303
253850 551786
328013 995134
154409 482215
134570 114526
79728 333316
805763 602486
223709 532099
646916 576055
15217 4640
919740 870782
571883 592331
954979 915442
398334 208513
517850 442544
342982 328340
765863 557347
571410 39625
880344 254153
54713 771105
939816 60523
392569 526932
556376 636410
134302 343186
597212 302915
990357 702040
337916 278267
562179 929520
412722 432523
706690 810094
477994 4680
124127 44644
14878 148934
855687 461902
159397 741694
54552 144817
845502 452707
234302 881061
387602 462917
278300 412835
319173 956115
567307 617235
253029 885282
840871 164030
98841 214480
960421 274099
103750 830868
785922 238856
208495 312915
576904 601919
333223 159425
795924 820913
876188 168093
577300 786002
731292 567193
502212 736619
870393 522455
473068 503172
537887 74463
333561 94038
606792 124417
651099 452750
806549 835655
940513 173771
611796 154603
979880 811157
293146 467642
581995 498049
268814 686088
821007 960794
925673 835419
835022 527195
318787 482172
377683 602318
15352 985004
49724 19535
432950 671638
885581 846684
223535 193882
294028 726579
592428 139475
144056 850455
546893 745688
875848 248275
601920 985059
378143 716002
920370 64823
323707 949739
388402 557732
164391 771074
642421 44708
780894 934878
437943 562150
308980 447900
104598 979709
681456 731800
517432 393049
498500 84575
154471 382894
159107 682056
875057 199087
557346 348924
671846 556601
512308 954200
979827 800877
879864 358080
720931 189106
915451 736191
607031 900266
546987 438158
407690 273303
796219 303445
830949 204834
99432 89327
920373 224179
338253 437484
507930 741114
293152 88625
273838 45311
447037 298201
801179 198816
959772 840544
985406 114118
144355 731017
328153 318130
557336 293123
617201 481996
254215 382257
288237 243493
39450 149419
994972 393089
517400 836202
138729 696787
447435 188892
119837 532027
218488 776119
930178 760608
551797 667093
313204 248911
859493 627318
556831 786123
353358 80082
919994 327709
939771 920388
587356 348277
397831 781135
477452 159871
139359 397817
939696 63748
980145 881072
130042 278158
15075 661536
462553 656702
960014 477808
736816 388364
343681 537583
910357 198921
781352 179214
343026 884992
960404 338112
606660 284119
363998 805728
318632 203553
850686 666354
686847 382869
487588 690941
791852 811586
353993 651729
443304 834744
930027 512044
567396 995442
597155 910879
950652 656263
268689 702063
339610 15470
840664 681184
54301 562637
960443 745667
412475 338637
551544 741044
840817 836203
408112 183851
283290 254361
741081 701128
463192 457316
726483 880317
338520 378206
373491 477482
840537 667193
726385 850307
348392 308746
934990 328608
278615 94849
9742 313597
223372 537422
134233 249041
228438 333792
278361 671418
223454 398604
616946 805859
846055 622356
123835 985676
860656 5664
84810 358515
198899 756169
736647 521869
984764 388352
686395 855755
691021 100328
880433 532081
667078 900237
313909 428191
845396 542566
865415 213205
990328 636945
268687 268230
612032 119687
164158 99012
154684 194791
950999 338271
980353 432478
681312 224358
303511 716594
408638 830752
736737 796002
278530 636228
457447 368286
741323 104303
287927 765848
811145 582083
950500 929255
179133 945131
104221 974146
641479 353548
945373 249168
586415 591975
542932 104253
302757 655791
388593 562128
104848 716500
865243 179220
716056 736487
711575 268325
437043 969558
641795 651609
542713 174800
512211 90356
219083 622040
910077 5176
79468 830363
835903 5663
816042 323494
168912 965934
129501 914931
258176 79718
756566 905362
701844 278441
931145 681846
502585 929992
44078 830874
143832 304077
701685 766845
905436 964977
29941 487360
437978 9608
65240 984977
233768 527368
179543 462716
392881 64770
726723 268696
294202 293318
736354 293305
681609 487046
348134 243804
194758 646963
801069 631965
353166 204170
119153 397892
397688 188971
875390 741531
323327 274365
273738 980471
686276 939267
890382 944725
94954 949605
900867 134813
377496 641600
64504 647581
238507 990118
562467 363171
423193 980012
223759 652055
906173 676366
477927 392783
258496 541668
507998 785857
820816 35211
906253 113896
69373 865973
736778 985315
4843 55039
646834 761196
655884 770657
54095 403427
636603 198842
452807 706746
964221 547634
632145 686544
303428 969831
701611 705852
44181 477089
879984 810335
666183 218952
915297 889888
353645 168941
308052 158810
173756 929871
517499 338135
552600 885652
795370 343621
164589 671397
701308 900214
969587 676306
15099 900776
557182 821076
845870 964065
5726 447461
312999 671597
925959 895622
602019 547689
441799 368711
452255 372669
869914 935382
810522 507053
696353 64776
706185 607213
5239 209558
397360 930767
39824 318578
4552 930250
920493 597135
551996 124170
452866 731099
592403 641767
89554 919981
119329 557168
975221 781081
806308 248955
636591 423032
816384 378220
841419 776626
547438 866200
452975 681832
805602 995050
766462 333077
731430 104705
571465 851009
880004 785999
522909 553018
855424 880288
686179 795650
676103 626900
587180 273672
667479 154587
258374 924844
696270 960054
646141 676823
253184 64388
79615 926446
507679 512201
447843 826158
642400 369180
89685 313651
949660 99797
348049 591597
785763 776028
358394 461977
159325 308561
606411 328873
476866 119652
666907 860496
328129 313408
576592 438022
591610 238838
855327 44817
212870 393542
149671 612134
915614 512889
707047 612034
791232 925378
467616 477242
507329 138747
427876 433431
855757 452546
303503 313334
209127 223535
188547 39619
119813 179991
825942 861684
407803 268603
483255 453004
432589 303923
691272 646413
219032 532784
467884 168976
328597 337365
578033 104561
377650 856017
656806 352894
338518 831337
442985 646977
741076 840354
482086 213245
621567 173779
592040 825617
666155 676243
472047 677462
398699 821384
188951 940883
333609 905613
746692 139103
64922 442663
308510 890387
238111 254356
338886 84846
458163 248445
611492 974791
606935 944918
666199 124954
955845 586937
452882 711852
964922 209363
701456 771374
885943 915590
621346 671293
796419 577253
696371 592226
716995 50334
209492 691138
815180 810564
308269 501881
557479 760826
408175 846297
637091 99811
900252 890075
78841 119811
850553 174149
59983 920153
372896 258088
905711 765784
34768 865878
39502 934738
775955 527415
671324 836400
870876 870289
427492 169113
681740 507513
452508 532186
278878 443400
551418 826357
492172 44610
209031 78863
158900 567548
626450 517226
964538 542601
750385 299008
253340 39759
259301 115040
332839 134860
308532 695653
651135 199123
139360 84737
174505 621982
198570 59666
985124 273494
168774 711984
448339 24553
432964 50241
487687 945371
780666 218884
731078 512781
467957 14928
647173 159804
706863 716212
10003 671241
288704 811087
522478 876224
591281 69697
397850 631510
14434 831227
561445 213935
885500 775282
238503 840966
845823 576889
920017 985094
895967 29766
94170 388474
14475 765834
263680 14894
611573 328670
44759 536897
104604 527331
352908 964982
298527 696120
682351 885501
795622 427719
691833 372860
592773 721459
218607 711061
39527 806389
288269 930321
970274 970310
124624 526642
491796 224023
65771 989235
760766 163705
383318 437496
607206 601581
915481 358365
412596 995396
830060 955175
412645 879249
144608 19417
925381 233826
607318 165256
472223 288752
134350 153334
866214 293436
726508 909715
945230 433030
452164 169459
24800 388689
229000 735641
263787 751441
845633 527699
711987 642219
288560 89735
293333 462414
497424 328880
527369 184155
665918 129990
472175 706227
615878 283701
706624 960335
343110 906257
756054 100112
80245 980001
358661 830461
442469 760802
711644 910293
84562 507263
353309 945234
148844 159699
925608 975472
815698 974781
402908 368862
352810 681346
144181 134572
417551 596886
726340 761635
184535 751108
423251 198883
955354 377760
114248 363049
143798 89342
939874 497320
377673 139255
935500 602050
5149 358001
870143 845670
303164 293631
153782 88829
233349 333507
711173 622020
228237 512046
512500 20630
198214 478132
39482 45338
40383 179731
303942 168774
572192 985002
149257 587140
785536 64649
135006 492124
94133 556788
910730 711683
40031 960203
931269 581809
74619 671531
806209 442706
831011 592145
766516 154975
363799 527358
163929 338682
980178 944791
866163 487154
119122 979885
890256 492333
124578 373049
532411 711839
865915 90253
44366 820791
70117 601975
562663 442572
885770 676814
567480 79491
811606 149858
84061 309284
317583 338414
437326 139773
472894 332856
880701 522619
875356 357906
900850 54132
95121 313100
214580 427627
283300 392719
119062 223843
706716 114878
422419 377821
307998 522635
144428 930184
626716 656551
204106 4872
124180 234143
537164 100412
328265 875720
581664 298762
706840 472020
642264 940636
845444 123899
472560 273973
521896 313393
124992 786131
715867 273272
423817 15121
104860 218396
974733 785357
373430 826150
830400 373130
452194 208831
94682 874870
5023 74976
329022 442974
179440 113945
283737 34601
691529 214332
219466 761554
432247 268502
656931 35225
980342 835812
716872 826781
577041 875456
317675 234009
696390 900797
766053 442877
722062 44698
140078 915360
950203 328044
254321 378046
413055 397797
985231 731909
562374 527443
448040 815326
457744 20044
760842 756101
402241 561747
750394 438565
114823 318850
203992 552505
328035 269036
268241 458687
74275 164085
537618 209059
781248 547135
352955 144380
38952 860330
532374 54953
602136 735865
771191 706135
113860 508194
939959 229004
851046 681691
353459 870449
168787 59481
776248 199195
850685 343542
742071 955243
103921 412955
551728 617343
885500 806270
582237 791261
705797 905289
542162 129444
562201 954690
910280 756422
596960 158936
297816 54612
398120 921492
383793 239472
850562 910888
980138 144901
716366 631610
949869 184688
860593 25512
60201 960202
671327 790452
960202 591743
791714 507558
627205 735963
283980 676925
224099 99502
527815 865663
765756 134399
109220 29879
188756 194107
24878 915508
790339 83977
567437 105013
567300 497388
308045 885523
647260 228575
318981 606847
189151 770954
497528 278833
123890 264368
273177 244190
29900 392996
263405 890594
900586 452569
601967 451768
299130 168476
218363 199007
262859 89448
955214 134530
193736 303812
845749 378448
796249 766212
552238 348680
144758 398133
801498 40111
372409 183808
751244 840239
387791 939809
701885 247675
10027 547170
811182 755434
671656 109209
546853 308495
552425 39284
79102 721030
65216 691498
64218 382786
572309 14492
268908 581858
124954 383292
656175 59692
169715 194031
482037 920878
248897 845145
392445 249218
154101 821029
532297 373241
745819 323586
557160 238764
402995 129616
70045 413269
4487 367377
821399 576885
740785 622349
473234 159513
730459 611913
328533 930751
14379 667208
656334 786186
348520 731065
821191 676438
522771 169077
885726 711210
672160 925422
825493 816023
293837 602292
393555 502800
94716 786009
227895 989983
647120 129385
228005 293990
532498 248722
691879 412780
29908 228796
612192 348080
218208 592282
164534 412731
5797 751770
34721 756200
606874 40164
90022 119058
153918 209600
313884 945234
268364 795804
632199 661384
512246 950599
99538 233737
487807 263123
934859 139395
776020 840254
929388 482322
716125 955382
373271 537127
895257 253775
432614 642516
159182 164446
458087 49614
841188 955174
238890 198339
517430 169116
189434 527276
746035 94586
99026 338846
119154 964932
731829 601728
707085 546833
109454 592639
174420 507281
273785 353491
353711 273837
363705 781561
995403 950301
487049 463096
805435 527191
338128 184605
925493 796082
219323 875718
24086 213823
487701 850596
889884 671838
632039 696437
840259 945611
995579 422798
5029 313042
939929 422708
114555 39650
541818 696957
681707 10443
299138 293805
750901 691545
298009 691933
268938 448383
448212 677133
880315 527093
651589 69600
308322 975060
602969 750391
169361 373096
959753 224292
24958 736662
418579 90426
4595 174664
208597 412965
378435 343224
94749 268497
318440 457326
188326 577408
79555 766075
796202 472511
174429 418210
920369 606979
247288 616809
925291 308607
507596 905984
328394 129843
149216 392486
378362 751401
522606 861186
417534 910328
785669 89622
910371 50056
672672 35414
612248 447706
487354 139676
378605 451940
99433 771030
935609 606604
197855 283029
925161 482296
591377 914910
428070 462495
985405 721410
591022 676405
955517 880960
731703 546852
522182 671657
243530 736686
243096 29725
677096 880740
676953 965413
891171 20189
741361 432365
740971 791050
208913 65321
442532 313933
148480 322794
586659 522758
134034 89672
507232 775660
502532 617497
114084 49912
875430 453055
770610 850429
756197 5036
985447 895233
919738 537976
845596 606765
188526 433229
696182 432735
224120 875154
951294 651973
830354 109338
44621 661064
886205 726212
607134 462776
960521 949863
65288 5288
209099 24884
701754 268221
536780 383239
249051 756946
109052 477561
9427 632288
542552 9570
99321 79543
307954 691712
64335 174353
24576 805978
154356 775130
512203 796230
741053 139540
134215 661518
228906 203657
780979 273589
109532 318707
347508 626597
243843 149550
228537 383722
448057 896458
223845 980470
34798 119446
895741 24902
168870 198973
880504 352958
785475 925424
352976 388179
741078 448181
896099 667030
443269 909747
263703 254003
412475 546783
442448 402767
994815 508458
333659 173666
935509 571989
273609 264139
891045 34810
606513 656791
885409 720631
413208 94286
49964 935744
219221 607587
352907 134663
457254 442695
681123 621992
9773 288733
288663 119863
258496 766007
711644 795871
173754 487905
154546 233884
571663 707240
45192 458271
438089 4678
576808 532263
671800 746831
607537 680540
482288 492636
416995 651678
845589 935523
711456 178853
119919 995127
363160 830320
193907 453037
566896 95389
731617 149178
68889 681140
233636 39958
681398 711543
427820 900896
273473 577223
203814 313308
323210 153789
352967 497571
29975 302715
54921 158940
303088 975368
224019 234032
865954 457458
756047 870274
671024 188698
820717 472695
283479 4753
880373 219886
482460 382787
483151 19329
15547 154253
378426 890999
612134 496982
850561 472375
447443 631482
617212 109309
631131 383468
925622 139299
502473 194249
825610 741650
939879 468075
50356 746330
905648 403254
517819 841488
124440 696574
905523 119668
849970 29522
358349 442215
621627 771025
19657 826032
407988 363672
303662 762025
328493 616809
816334 179128
547205 860013
59430 925011
458185 636974
761076 14672
54310 313718
760817 308783
144260 711969
995139 283493
537968 352857
40361 139377
984728 65052
775747 268166
203924 348676
806531 796266
730934 34865
333307 189144
805806 776275
670962 482827
621875 457332
393152 576525
233459 791171
825571 965571
632097 800738
35180 19634
990326 10151
541740 971058
691358 805647
607376 910143
303442 685986
139256 831401
671817 299314
607010 10465
502158 308854
532171 348370
587181 731620
791621 268185
695850 402622
702103 576491
313112 437515
378432 388169
438614 711455
821182 482608
746832 650925
606901 89524
402808 666894
388583 810992
303573 413421
392779 159078
264363 139401
801075 731192
24878 831166
144316 741476
950400 752637
5065 388125
472145 885489
418187 148730
816184 980152
60715 99107
582656 209298
273443 676425
796216 955481
368115 696574
372956 84034
925952 183814
751080 248665
516603 507567
248084 607112
423175 243644
259068 592008
59279 716542
909699 542544
641437 438005
766219 542242
20326 552439
39268 14561
393437 69506
373398 60068
228539 557557
40383 194112
169272 358245
204595 899980
318511 870104
244080 710944
861007 204570
786212 885084
69133 393520
735872 562087
875584 49990
213913 282935
836163 283883
741512 919614
980110 915550
725670 576568
457760 616400
721745 586518
786136 875404
493107 482704
965732 964581
149515 880072
970914 382931
820965 264078
755644 736075
124062 647002
45204 692314
313819 447541
676708 418534
234150 45397
666761 363294
457267 352688
323356 204307
19884 970787
537029 313219
532221 134187
592318 522191
193602 651450
586529 701608
15016 736426
691691 826063
154240 761363
277658 239248
9877 123723
716613 79376
885359 44994
497512 541988
169280 377735
447430 99482
303672 158696
383306 770922
35684 203752
24500 153847
153637 551523
706504 467102
980011 337733
9462 363513
45932 795442
497372 984436
477563 805512
761603 502521
457865 377974
572411 790785
45159 775936
905189 591675
189003 846535
302998 139607
940368 726981
287202 646815
920416 547575
790976 681135
115146 746175
607114 54174
268155 547197
452420 611884
596978 403177
427592 616835
800828 283705
462941 198600
686217 517352
184051 686253
746152 482703
89226 358238
55252 572059
642022 343239
189260 348157
333672 29424
357205 562555
915871 651330
477787 666745
622094 890330
253708 796023
985443 407923
427522 278232
557166 781090
960258 845705
308705 527660
985135 278549
995115 780868
860886 511898
337470 337335
547217 213455
278526 488055
696223 805889
14157 198970
860223 377841
288762 586467
263270 851041
562870 307940
681429 238550
457828 989958
213973 482287
393413 488138
731210 742082
632039 44904
914645 497385
940272 358877
974431 880144
233111 611363
526917 711614
114229 29933
760909 59896
223628 94096
850584 964820
114664 10260
268341 183208
442230 577421
642492 94210
462380 542702
348452 253080
835685 542737
980189 974973
403643 337953
124649 472823
50178 128726
109286 273149
925208 631470
865601 59845
591586 169455
641639 502467
596849 707141
959987 318469
482047 562696
203561 815823
99468 318835
899808 700964
681966 985343
844966 213983
850949 134341
661843 716910
318734 642117
403241 696626
79840 826531
686476 433145
880494 323384
382956 109316
278686 263466
869334 547537
497569 154383
79284 855360
970019 269048
382608 537354
740920 547146
24866 925560
457596 905528
925989 258899
755484 920315
278253 59595
263474 63430
209203 527160
418020 870497
641899 98611
457709 79299
785645 502266
472440 562571
864970 741889
671868 179390
885351 989667
467148 462589
543350 448033
865352 944928
905072 561995
407601 119237
900613 810230
417063 940170
706342 243405
731259 417740
541762 627053
786528 587000
786761 437969
99294 472824
895565 960223
855972 20076
546950 338802
860314 447467
502507 621928
437633 865745
54516 457581
9959 199033
228624 433029
492844 69759
323912 238265
59188 865530
671711 631650
742231 278915
39919 332618
835078 711851
114119 572647
44973 298541
900429 939753
616788 591959
960289 616592
776350 552024
164238 358505
909562 681225
731125 751504
383082 204099
44682 343182
248644 800803
890996 517806
726357 10110
681191 4976
487174 54427
437522 378698
353381 691551
831111 124909
741532 408230
582625 711650
441933 125069
273912 194196
318074 577155
611914 865504
423205 994391
209325 14323
582221 829871
353232 332928
188919 428404
800611 955662
433091 323623
512640 830230
885265 343309
631914 676819
805383 238742
402790 114259
771561 671806
109527 621612
542476 482300
134349 775837
328686 557641
273726 272448
865271 825970
910190 314446
45070 507190
905223 671222
302920 945173
135018 672331
507906 701284
114942 725764
84357 567511
174080 935307
283723 880468
691213 84796
666444 144230
905164 467839
139055 15433
258437 273056
776446 308376
900331 517355
835072 875636
298056 158916
606570 895100
412991 562066
422119 766510
223626 418161
54321 661577
178604 353836
243932 234141
547231 597354
436725 905856
483534 676634
537386 712171
875323 194381
19272 467690
616819 139741
74251 751386
149211 238984
442436 546984
103821 680730
885969 532077
413154 955235
452835 835434
307809 726934
676702 592032
945035 442545
785420 591965
64540 119507
9913 745666
308530 562728
427463 691243
452650 69991
527276 731266
144300 626626
547438 109453
264219 507564
268572 378694
263000 268849
328410 959601
841195 124324
169533 981342
198750 372645
542230 347770
477477 443026
139068 212962
855394 373499
368064 178686
517751 14974
471892 871571
502229 383181
746450 492184
139560 140366
841819 890673
641233 24733
457876 179522
19730 652247
168983 302871
925145 800312
123330 218847
776343 427756
483169 15149
671802 979588
159368 666582
273929 293700
254229 273447
343429 770960
29635 572109
627302 627021
507049 268284
343457 487253
771270 473018
199257 388345
970576 760992
502179 119556
591515 129642
322919 139757
204029 135066
735998 810962
940601 925199
194271 279040
984956 428180
621379 134230
432643 84719
682046 442402
965100 979658
64259 333786
894884 796107
707127 706989
547916 114893
498095 527668
19682 646959
263790 258051
955346 720559
711494 378177
641276 228896
393140 716256
298497 348305
686389 278637
19286 154476
745755 815431
363108 338125
393052 557587
631857 825489
880833 169644
34541 39432
194372 974457
741133 800664
891238 398356
995018 433483
979866 244530
751302 815952
453256 417975
860856 576737
786001 308953
29900 9609
826347 700570
383558 497619
20288 622211
756462 761021
935112 238585
507343 935336
283849 278975
363233 959507
542574 990556
770756 736227
209002 731574
920327 348071
447797 94554
876460 233990
959823 252674
711709 105139
602216 701206
139795 188885
507437 378768
223536 39580
980711 960327
348050 825872
924440 984886
910823 481751
949970 68834
422283 462132
79597 706818
502328 696817
600979 78655
229485 746158
243326 840538
103990 995346
960444 407616
647244 746577
920659 964255
656860 417890
875953 392933
228412 651565
348360 940134
785615 164004
84817 666391
268314 89856
552020 711318
969707 437878
860930 939974
139240 273115
765997 840467
378147 29919
73825 401988
711700 527820
496500 164204
606523 487848
412740 641913
313549 412481
755706 188814
616878 795756
636705 214036
561623 55339
537085 845332
581531 59867
352944 990563
288635 387783
989763 566420
164049 343015
616501 407252
816174 317651
617261 542600
278875 925618
362585 173842
462072 442799
651826 491390
203536 975055
751181 601695
74719 144649
124160 606445
601985 661666
24887 342789
293815 557086
214453 397973
348483 651616
323778 606519
184301 801261
551500 855423
970913 950392
317647 930548
367346 418508
795935 363564
944831 159150
492386 889969
870375 432580
920223 641803
298492 801216
164745 328313
980247 457913
711308 572685
343282 985346
229041 716822
209536 183496
930161 871211
368030 74507
537796 174136
75202 15868
592086 323110
702420 392799
243868 875264
641545 970848
169786 925597
244228 143990
741610 233449
407875 965080
45009 59582
731482 303218
925407 511900
338257 542735
427956 980243
313411 169345
601397 69254
980109 920830
776134 69830
422938 602091
437977 885345
667332 258496
533123 761011
611727 641158
567522 238760
119643 123657
373063 965309
761225 129731
74516 527035
218829 810936
79353 29736
637101 85050
666774 656560
696898 736187
512690 453018
840760 895575
299051 239244
517342 283575
949719 269167
79366 387890
801653 128632
696409 39793
34132 482341
806493 522290
532185 984768
158934 910463
821394 940583
24519 657145
472703 970318
472574 671210
377591 969460
427965 685939
905501 497424
54088 233831
662019 901083
841064 154586
114216 686388
472835 40226
880996 452403
681880 15330
716248 885258
926202 148683
158599 607323
761184 636821
363506 467092
417756 412335
253556 597049
865546 343800
313184 203952
279365 24366
69527 154598
661358 432640
493399 59397
477189 950436
209140 979885
741277 383612
134485 527894
114245 144708
896041 950232
561704 611531
303773 317860
477466 676909
587379 900852
219043 214005
214119 875119
860445 906121
5269 178269
84591 20293
462654 900101
507555 850842
442760 581720
502608 453058
183385 233923
532102 337712
60189 333224
801830 94413
153758 980203
507367 124569
253944 726484
566398 407534
507744 721225
886225 855962
94263 487248
413050 357863
487819 761211
721224 338501
148926 542314
413415 526613
666325 139452
69496 777271
800581 646835
373384 606698
945316 950839
158623 323323
587103 562881
751214 905661
502879 576958
607448 243969
194687 538392
174580 144583
113968 870964
318630 149025
601479 846029
661173 731518
776233 373677
423209 248224
169036 332394
129768 985209
900470 253925
63938 417814
29907 944711
436830 423063
373178 721476
198370 69515
542551 293379
208909 303981
243795 626818
89041 174335
278277 5216
269463 437901
929886 955758
442292 771827
69486 74718
517277 800142
920499 452633
253730 344172
681384 169057
806385 661849
5039 746559
576931 5001
338954 343249
746072 119739
353665 611413
995813 522605
333243 900569
497154 841388
502893 512999
567155 820655
661541 84706
14843 363866
965831 568228
165101 427367
606403 880377
412539 845557
70237 313825
100267 124355
238439 158708
651215 89906
298532 153746
656403 661308
109339 74961
129501 488001
253777 686393
124180 612835
830937 607136
263665 552884
511931 307961
129803 24988
194073 24828
591630 606163
50131 124902
388677 218726
806288 467882
586477 666110
54983 169032
238606 751103
556842 562136
740945 153939
403152 134465
124389 368294
617107 29713
413164 532408
507869 900318
382787 945359
357932 124598
831028 801070
413031 771597
368188 507573
656566 542603
263456 936301
775810 442256
173249 651048
527304 810163
293766 745663
785958 650765
741135 989531
960823 183687
358016 109546
910723 10347
492300 701778
69119 522224
253632 696999
880905 229699
4556 900865
577246 775960
119640 591728
40037 129170
721962 134367
348303 890686
720807 203968
54106 492394
820237 790573
308551 278426
686344 457706
552467 985298
223686 383085
333612 601748
99659 736180
701392 836273
959803 402751
253906 253467
652054 209240
308021 179237
671611 10333
387683 338145
54783 183795
562449 130053
462378 104361
930766 219116
209093 54730
522438 433427
422253 731119
134508 184047
791631 44211
552524 278353
646861 368002
726736 228362
686793 616875
666803 327865
19681 586895
721450 433237
800769 109543
179537 572119
278879 248844
521681 964738
666444 566668
363294 706208
288476 626521
870781 671827
443030 568114
184037 73493
173772 473080
436957 233900
94201 159211
392634 561949
726735 104563
755857 597261
730864 965290
308204 856094
662601 815294
199393 80007
178914 850759
224487 401959
606874 964601
557660 193690
109425 303272
889710 700953
831190 308712
949964 104271
786129 497762
994874 94668
154582 810504
308311 288707
760361 273985
980048 547575
680917 392606
810940 596811
601926 483020
581901 84386
641450 327974
547795 915620
676471 826450
333173 641581
538034 816228
517051 437981
641528 601428
333526 324219
587173 975356
845785 422789
706825 213965
358734 269128
521762 69325
770780 979937
99375 249068
417423 711184
920350 114382
756799 44039
532480 691778
119079 442633
845837 701949
34570 342994
90249 373484
800931 616825
69312 387718
29653 696194
825986 840416
258449 109085
403635 447565
686140 198857
791494 437553
457350 562025
637215 493654
557012 487089
49668 850188
945258 523064
731605 408392
472767 657054
965098 432919
387681 780827
10682 930208
179405 582385
761208 124896
532378 453041
502420 651613
795618 119264
896237 89870
690371 308835
377986 576937
781766 572253
313189 457480
447317 831025
706872 785898
925828 39298
139397 557287
855819 288638
890097 327963
139897 512694
253753 790866
377760 258094
567326 980279
283952 467795
596945 964397
850855 353506
821061 195056
796015 906035
612254 114476
124670 656707
497537 990227
562431 622768
547259 935180
567807 428113
810474 586809
522278 607032
906011 5754
238089 222813
224647 815876
254353 189275
891105 502151
765595 173858
507891 5053
955017 735999
726153 447933
601989 392428
138616 144474
59722 184656
283741 661512
964854 428342
964900 358724
766068 402576
895704 810158
850421 373836
24986 621644
945605 467422
666286 4851
587514 69898
348806 805679
119735 159215
358555 861340
34997 448036
547094 14795
721565 397745
498465 55461
114870 974897
204013 483011
333314 397615
254513 233780
835435 54270
388222 233721
651342 641731
437648 387704
143628 950215
129897 945776
890318 985812
940842 795755
213667 766394
557362 552152
875203 811078
15477 572298
100178 761103
562058 726068
885932 437905
989912 950317
517574 875481
861453 895935
711207 617463
24290 582505
691057 616845
253499 114509
119645 79582
601920 39774
691069 587519
268753 791810
223643 263923
940160 612582
178968 149592
473086 104531
904947 597408
119418 83890
746244 418218
970096 801016
168960 413293
552646 467733
631628 905397
487158 804984
472672 666185
701319 19520
373145 507352
636995 740939
796477 314014
224895 626466
726913 263610
865768 353246
312963 4847
551969 327953
308616 985162
631632 493228
875211 258462
462404 338742
452443 920125
671667 895272
288564 537424
562027 169481
174170 284036
373235 273194
905332 263532
10302 169012
308419 442525
750803 557362
243442 830602
656564 527928
825884 50098
914779 587334
552163 870910
153963 64601
482187 378326
696456 730508
463050 248803
383297 691542
502427 94659
771189 542483
284082 129533
74377 244523
611741 407595
378577 263040
661873 328466
259092 711505
657612 507203
502286 273422
233973 338200
477045 373794
984570 716548
826061 442491
800362 960000
781135 641625
73953 502188
492154 402745
671381 865659
24823 482925
248834 780992
386822 258872
989942 497797
671849 79572
949848 556843
194419 675997
761488 686651
811588 417776
990559 691782
302971 109248
273252 815875
791272 302793
860369 537783
680689 204458
512571 493090
234293 292616
925114 58971
338640 482144
879832 507763
462348 826577
672038 511735
582311 264553
44729 10327
706620 5447
771809 59234
39241 267912
701251 571630
691400 671453
308525 715925
855742 726538
238788 801409
816220 144654
383849 950193
626940 766677
607225 884812
233401 323418
780187 816134
477898 447026
507553 885732
920799 313397
940727 885885
472541 880805
756453 696024
427486 94498
427935 487568
55263 269480
755951 731667
463171 308564
955488 422858
253665 571812
84865 856019
939977 841251
65140 856215
726210 55169
313067 840229
368585 184155
4873 50368
383507 577097
766609 945359
407686 581551
786319 513532
661446 398110
596455 312821
428438 513141
756629 263546
840565 244342
229805 880110
194070 223946
581724 701241
816128 861002
626953 214346
626781 238626
725969 467915
980304 69319
388173 378708
766541 731572
860505 294267
239316 90274
746823 472746
457485 558185
522475 124252
940041 607158
129274 536894
766182 890416
687312 223311
825424 34575
661041 537569
646432 810966
39334 546647
725928 393060
89712 283772
925718 223789
735503 845019
274392 54545
105006 676100
771060 935263
711000 134950
537336 278423
25130 407341
845851 547689
865793 855231
88884 840924
338105 701250
761349 208884
810756 69973
169231 214749
467933 974808
442825 204345
532860 169101
363330 984703
243859 408529
422306 203999
960731 129484
343284 577182
715909 731561
169146 308259
651459 19952
690600 910511
885822 353087
731828 945365
348331 507807
69601 492432
621521 860053
681121 467656
462721 348332
467852 592287
845847 821471
900559 466977
900555 944542
527181 178996
417721 979993
264069 929837
975366 348117
45062 547336
790973 318260
949966 711932
950181 547319
447677 656614
716287 392977
631935 373640
427053 532738
681279 472319
208926 935009
527282 303545
642433 164251
99371 362807
59225 492338
855537 721371
925272 443118
780965 765478
378013 74641
531893 840552
821133 238327
442692 686582
776148 651903
69915 144094
746841 607170
755959 143415
412860 571933
447705 169130
388156 701355
567209 925328
602047 278726
283543 930376
914861 671394
532097 342748
89215 59610
349198 631644
308540 621457
223526 865389
611624 283510
327355 403574
836025 164288
144352 50300
318601 626520
727152 487460
383202 890179
427923 342911
457740 676234
567278 989529
353185 596324
761088 323625
661518 44440
516355 785963
159666 750979
54599 443278
671319 571645
313562 139349
109799 521970
775628 338370
467678 443156
233875 263922
955173 676586
208782 740873
875429 552120
318242 776158
64026 29623
466748 845939
10524 223251
860697 139491
935596 303741
144453 875054
820660 109482
860866 916067
577612 830584
950489 168805
462814 885469
149259 79929
661505 685745
855199 682090
935555 173159
811961 104419
835819 657217
974747 403565
980299 203892
159495 896256
15388 786343
870744 761409
606774 612187
617544 562262
985449 119197
477281 835979
387630 392756
99303 523023
457867 458040
651642 870572
557608 626404
820951 247995
741450 149024
209571 378098
736418 343306
452799 974646
567500 856129
985494 646589
477527 302288
488004 243530
920265 318145
318390 447458
203622 183986
59556 826427
984782 891178
204256 478331
701829 940621
885415 29068
651576 531876
74703 471967
392961 368472
30239 307565
114682 557081
811177 740615
448269 640439
756897 666748
20163 49705
462677 223686
183273 701160
482708 248987
626160 452090
64417 761109
989520 627003
512779 263903
815486 964604
483421 64308
303550 421512
427572 995140
482812 706209
293297 359255
253180 656673
383770 393962
218561 970751
502223 164338
104307 264357
696680 915437
463350 65050
557243 40391
69026 582789
183458 174175
184072 84225
526896 671515
845916 666717
646709 333734
194580 243933
542409 402905
352421 248610
820818 815725
463193 646813
318227 398298
243083 114237
736715 606988
934973 591913
487621 621650
935019 268949
348746 581943
522345 820496
730770 427848
721866 213521
721608 178790
268698 353288
790992 591618
293149 273985
223864 542127
536907 706247
705664 880770
233885 771208
54605 622053
606760 433272
606315 835371
830402 581873
328175 507606
338323 398603
15395 815533
317901 218508
681615 422126
329099 850267
183743 238982
751014 865690
368373 462527
15072 760671
323962 929949
984486 935040
158932 945302
194470 885488
70010 676227
497770 567114
109067 894754
477558 283380
318661 666606
532503 814969
786261 422412
347345 214169
542401 214549
831308 547289
402489 661634
457156 960405
930400 910438
523068 745730
651257 860611
557095 676309
352874 407932
637185 840930
677076 348350
492267 433374
979173 676180
392970 39960
547408 124286
153734 20498
970533 403235
417583 372686
870766 348238
771118 114431
467487 238848
840402 134999
567119 204036
736291 860833
860475 65136
532640 771034
920318 433091
955488 726311
49888 841000
403374 905477
755957 323571
806101 830349
372952 576297
630434 855647
612721 253818
701274 64563
333150 179176
801513 557229
979656 138879
139407 164297
815122 512887
716528 338798
478191 790769
597509 820870
412664 19419
418197 24347
601242 99612
233577 735663
99764 810053
557633 885587
219224 457860
582740 542419
920380 189186
458234 577227
567201 512258
163525 293518
398035 746821
909440 457638
159253 124573
392164 10246
611469 402971
482310 303229
615890 502344
502715 124026
447453 178629
592501 372967
114650 413461
328047 516704
154496 825828
810542 79935
69483 561756
785737 940150
869726 144185
332710 532855
656063 343357
875117 94696
502601 915006
989476 835860
526406 4986
44446 816098
666811 337799
284317 199526
686418 686190
651657 234360
766255 324086
263392 24647
249539 477392
139277 651075
571583 641125
168918 472729
268168 373306
716455 258497
343612 194015
154292 975147
507611 636898
462215 422194
547778 194784
199131 840322
805515 811396
4585 975142
740928 492723
278633 48816
950283 79803
970414 621916
855745 652204
865455 642077
377663 288508
780832 646570
581770 143643
597681 845446
850593 377970
118811 716610
765939 30024
557378 268177
885345 79527
417825 417310
656659 383259
333365 985160
129417 517764
113999 671581
856289 248377
587492 442554
636528 80292
268501 502270
666946 959762
20741 960883
332700 557516
731216 213882
168664 626777
338907 796677
283265 522387
865126 239198
776201 278320
940120 905644
208154 348016
881220 24459
442687 373194
581881 656560
129022 133495
174394 552717
130220 855464
975680 338018
547374 710709
164501 179443
965054 930704
970730 318532
268816 532785
617263 969849
736394 105187
65286 721373
214084 512830
592348 293838
910697 731503
850044 821218
612070 875924
194519 209550
845427 362755
253394 327723
69166 119683
626516 433032
94334 870777
99425 706236
900872 288628
815900 129438
865175 537671
492802 810737
611487 378005
362791 95051
796177 795671
164378 690667
193805 926158
94539 288517
4970 407665
427837 293887
785894 378258
195079 322976
104231 104060
651659 786080
388109 775950
666741 20469
671343 4346
119470 10014
770848 253964
637336 298494
223906 204264
496843 503281
373546 761535
402797 20249
561598 935673
382521 990341
372876 343069
990284 686513
357950 244043
477811 174576
173908 129383
268411 323922
462817 985192
965419 706586
835768 447859
432983 910264
393464 14919
965467 477224
49802 401939
820812 566847
69345 701783
567510 372772
149359 513007
930529 676995
123913 667124
468554 243351
845613 437971
860159 646263
597380 453110
323573 821405
318289 840120
188502 243490
483304 348206
735834 482860
855467 213521
309071 776299
576492 313234
149507 820574
562207 99836
945738 576780
423103 582371
691973 353302
762397 458014
551333 427963
482528 59859
835608 79835
949893 113969
562227 432876
821102 418112
821203 875093
99360 398130
179439 606751
44636 388860
329001 397436
84964 671221
203665 830126
109872 492352
790669 696038
850993 651896
288442 24972
268480 577007
706264 178576
472832 124357
646351 686347
458541 418524
213621 661296
352976 805979
895291 382528
99470 109793
204667 916115
687188 865748
995210 497901
940268 254776
398138 681871
223665 388119
417582 677047
775701 736446
865606 24718
378078 900152
183936 223334
19466 955464
55239 900210
617109 89210
926111 502415
890909 158874
378093 244708
85392 587035
666916 348503
597340 253629
193909 388053
364465 387882
398146 289297
398053 174144
750939 159265
362575 995013
860663 671733
721791 174132
572956 45049
159967 234025
860579 114837
765067 801032
666451 293240
979370 437316
149862 836053
964781 602074
268964 338053
881007 238938
313815 119290
780932 806450
139516 965455
154516 488260
273588 324012
313559 308447
353540 766602
193929 840705
118362 841089
741592 357714
611397 294190
700949 29503
178546 9521
895878 468068
602110 35322
387964 800850
975385 308481
960564 343699
979457 119373
433404 442702
627103 164431
103935 646282
427691 452954
382742 846322
363567 353653
139135 925367
289367 831324
730184 975284
557046 841032
328299 14662
353059 164387
627029 387961
721413 49162
283959 343330
458160 925965
969749 362911
29237 114202
135255 64584
541585 671028
348847 905518
965108 283974
810980 905548
129018 811549
920306 506631
228759 706344
607145 373292
347500 811138
368664 964610
601602 821302
49600 820623
542481 796356
870928 482238
198955 467768
637058 816450
432852 631095
631591 641475
811101 238279
5169 706371
194973 681280
666521 119242
89519 940349
496559 681588
676578 303567
139368 826254
253781 15664
856105 821153
989694 482318
677195 994955
353299 213647
229262 955229
75297 363843
716294 502200
233861 368349
760965 839966
193827 871231
741914 238934
5265 965808
367839 249328
855966 204117
362916 810876
934931 512713
750286 337937
696326 89121
313281 940599
741116 194153
377814 223259
55214 911002
39653 765928
796588 815819
711724 294013
233414 616306
696257 427888
755613 840473
785423 795677
60028 542237
368577 905297
845876 760918
552234 154315
492781 532888
288138 542461
512553 866132
776681 109656
492115 89651
198835 721965
826337 597254
945317 387742
731227 507523
169976 163566
900271 393324
985201 363568
541843 238506
50020 34931
781690 383287
373480 243794
706385 288219
369050 427399
825830 561847
428448 935148
447333 20023
826555 969765
567443 970100
438278 34546
567206 313470
939991 432384
427939 910253
44551 631691
159528 54845
925837 607103
273315 642151
840790 139093
721035 606295
721592 551714
89830 457314
969815 168991
213803 10604
915406 646990
163954 915423
229158 65097
571776 209006
34460 721601
89560 632163
348362 721741
194245 491915
696328 9086
542141 183971
960272 576816
820696 44682
935390 662130
592038 377638
437877 531587
174520 452949
970004 980238
627225 383371
705978 219619
652277 338069
10037 601951
507961 795871
339052 143727
54586 587161
876149 979361
19888 656021
895618 328705
775986 521428
183292 592764
726152 478470
557078 392461
612535 382801
125110 546981
710794 593159
85184 800234
383759 567264
342583 174214
332605 10248
920192 472632
284045 203754
383709 825787
970334 896079
796050 159236
572602 989664
129613 955443
278347 303469
512709 109788
915659 463403
438158 850823
174169 119501
69071 627221
333412 413285
950132 770800
571639 905250
467703 483005
900437 969851
358034 572275
169574 497329
790241 710874
647162 213547
413563 725918
611862 179054
790944 706486
959442 164413
268089 850996
582226 780877
646436 551437
811062 298634
234183 452575
119932 566397
283930 756345
552095 850906
30203 319659
626177 293099
955466 298098
826228 154231
323881 652404
851803 458054
925840 288010
238900 203907
368451 582122
229063 820711
954907 970112
816087 705982
517546 388530
114574 735630
223214 775498
781166 323255
198534 462386
477476 79684
223637 168514
189135 791727
840392 841062
558297 871485
800981 726428
258952 755634
447703 755862
532129 791256
388009 209095
24916 159551
895827 742034
890906 925409
249106 775780
84562 339001
398100 452645
378465 776213
616649 328561
845509 19957
632050 806014
935132 616747
846434 990534
665984 69391
880063 796284
631901 178703
726723 84697
337963 417366
482129 104743
820470 204715
358021 15205
796212 889586
985775 652086
627370 641328
919959 835849
104569 338453
766566 423234
676237 990679
277317 552300
34847 855991
48788 392763
313455 641750
850837 592004
442892 940070
278291 313720
661516 472812
816121 298283
248926 194168
815234 457069
508338 393102
333988 517482
54582 208594
547100 601536
457363 412425
810541 612028
755654 279289
687388 656794
328474 437628
647201 497317
791943 338641
770871 239103
134022 457804
44944 686539
428176 333131
527657 830544
442440 989589
443631 801645
890407 521807
378554 606325
567095 677136
502005 661702
69500 179408
835524 616816
40024 691148
298406 602582
293262 751389
919784 925369
49921 825525
929878 810853
791690 244426
955269 741271
701435 467341
970985 29502
641718 238747
169140 517451
512288 736199
691877 402636
109311 696732
786417 705958
855782 785825
213998 572233
979955 363231
984427 442745
502975 357662
821106 358408
497439 796123
964646 134278
319568 173957
970126 890721
512608 701582
905561 303409
209334 681265
845519 552290
587060 984987
222957 571954
517444 517168
367937 741074
229083 358438
328731 791528
84718 437992
387997 69477
417413 34843
9482 851039
756286 228281
313037 726786
671830 417825
522359 830613
880742 805214
342894 288626
94772 885121
367976 35144
780460 527003
39835 467808
233973 517358
502405 283965
233165 29916
950579 10446
536956 129436
153971 289090
64044 94572
148849 64675
755312 994513
662244 761281
463006 576699
228217 596308
617132 925818
302208 830598
935105 865748
666626 159564
383061 34410
36282 740766
134284 362637
467183 100676
865694 631552
522555 851181
223905 735826
397244 457888
338060 303547
720811 154063
423373 108826
324060 850818
866176 143823
377977 800881
84231 278168
427270 621613
537908 765677
900295 845688
402333 348566
49185 283475
303748 780959
209005 483238
949909 935489
925625 73889
268542 134912
184406 825849
442379 457507
432108 527206
343541 54815
641584 278850
964851 746023
621548 64803
59358 702151
153918 841085
402658 363507
293802 219700
960331 964710
427333 557900
597147 387479
498260 899819
458053 363398
442861 641645
298689 671238
427664 89634
601739 24776
751124 711976
353182 68911
666510 403867
537184 532153
900696 19951
263431 35106
527103 144406
358113 283649
123901 890457
368172 702065
40409 890973
422515 706531
258278 985131
915427 253429
497137 169368
218736 770576
487352 34684
656671 970691
184166 496960
347231 462537
35508 288601
775690 547232
815662 571882
443270 45125
845381 617067
686144 333216
403281 188155
576932 179018
522330 756678
199343 159138
676804 234721
906003 417468
392894 601687
562346 88986
120105 712234
224366 726710
626840 15015
735700 432957
478118 94915
258029 333804
124334 357918
820498 691669
597102 472702
114502 701592
353353 233780
721364 532144
447036 492570
338497 373393
149093 577768
303461 860021
34997 218520
238904 934724
557292 169033
433046 905205
308680 140090
686538 871252
855194 174371
377790 687008
357971 84826
387821 760451
791153 919801
313410 816383
780900 737140
24451 307926
472701 14581
55386 25470
228202 920154
497216 427760
551556 79729
517548 632272
327097 632029
403475 243593
24970 984643
612278 318025
422562 945334
940002 318673
412634 969920
417622 263763
821656 970743
656994 65675
895631 572094
761395 373185
109374 726623
935180 153461
587252 746373
183549 44880
318576 632472
745719 865826
985421 293532
89828 69658
846311 632253
244240 935018
427688 372727
880639 741743
637246 128776
452205 537936
407661 74592
537341 527011
308444 388620
746359 258627
850900 616566
253428 517158
930941 537585
124727 208823
19641 70097
740617 581581
79377 477983
124569 497990
920421 308467
488096 214243
263496 781488
765994 208716
602240 208698
910723 213443
337913 697046
725762 383163
537146 796473
417364 238698
288068 34538
134994 278107
701377 149432
249259 770469
208747 796552
204338 780702
871149 571294
935560 522071
49420 725295
248789 403285
392883 642531
871002 989671
576904 472656
701667 800765
313467 20106
641812 880225
85447 626653
547671 189123
50230 796227
821281 20553
338216 219367
995323 581705
483044 790842
736656 273555
697085 711771
885799 930736
910019 641104
960577 432945
890800 920818
492505 562187
163503 39219
203981 282938
536866 463262
944932 681418
935966 98920
114656 392489
775858 204667
866270 35100
581629 199452
631673 263283
780690 915555
143865 925232
905449 173964
751097 234070
517616 646141
661675 6431
114847 930450
104131 497707
269024 477172
985560 751829
860783 437616
134287 213678
178714 64324
288203 686938
657036 790564
183963 621791
134156 109310
995552 343133
691253 303563
353993 423090
626905 924646
602140 462707
840480 487628
343277 213893
218962 581942
761496 885280
790373 313667
487832 99445
896077 144418
497808 815703
328464 412891
721400 637279
835893 462492
338488 203970
851255 851397
831405 342922
910669 994797
860939 89445
263588 393182
760894 158653
751276 705688
153622 423458
207759 511889
905165 940927
163586 408045
234444 491767
298187 384060
776190 920119
129423 333573
796013 25231
59546 861120
886046 264168
274492 214099
268734 745905
785880 44717
109474 705856
860427 382875
347412 879844
388454 576731
895659 671951
487855 596860
288115 651536
855183 586486
805892 124045
447206 975008
109261 736144
179297 511961
104820 955060
894410 482436
686609 731542
617676 671828
949731 109760
159138 268774
348276 447912
516919 413239
184240 268637
298837 900512
422857 725701
935145 880726
671615 532129
258810 10375
174484 462843
557380 49756
726180 224106
552098 59521
881171 906094
805892 428125
985192 139192
616814 955146
720888 671722
318448 522508
845924 114857
45352 163931
811137 467929
671080 781307
134972 965102
612281 636662
497412 119312
974736 378153
4227 915614
776582 935428
358401 940264
920550 915521
561887 845891
19712 402966
195168 4286
894987 641403
522979 189653
612042 662247
144334 378254
671762 259123
776673 780977
164582 497242
641727 761316
910183 766604
292815 109071
447962 149356
900670 741651
263309 403338
129340 566657
367814 642167
278533 721281
909975 268736
497175 348309
810585 701371
149801 318945
452508 951144
805840 134171
732188 74916
307347 940155
194480 596128
790316 402935
348194 771712
577407 243515
333075 576900
915529 318988
298480 851059
367685 880679
109158 870592
507452 855338
542266 762233
49525 119666
73513 755804
681264 542772
154828 949630
930398 806036
581519 413134
582196 5204
954728 308713
826181 616821
54810 83814
84951 467746
880791 825961
168511 870944
845449 975842
944767 746075
761631 248653
786384 473049
577457 726083
989596 771190
950188 149389
382280 312765
477018 218632
885739 70478
870447 791137
954975 840397
647565 506598
591615 566776
427495 55060
562617 105003
601496 243937
691572 178368
89371 138756
170068 387968
442733 810784
39562 39915
497517 253613
601865 194485
726182 457948
84906 552368
153994 213908
532278 820493
606438 502403
885699 621832
507323 94618
801006 682051
44501 552662
771238 248626
258580 432776
537130 607186
711433 357920
14807 537258
974975 154521
213829 372791
642042 129682
587261 293262
596935 726542
437606 253496
541939 875325
577794 686390
990912 557768
890091 780497
139146 44651
69242 546596
551587 935789
333440 497344
959640 611430
686619 850814
497835 80181
154010 944441
517150 596529
721391 94099
662024 313582
855466 467507
367646 860962
94623 980437
457560 671532
815572 606917
482528 363294
691542 194093
766489 910211
94969 730950
586780 517651
980231 885691
264100 184386
139806 686539
806064 806075
209281 373432
299072 750827
403252 69260
209052 905476
457240 357746
581406 930168
442548 851157
850842 442746
507581 631609
566871 422290
969716 342895
214318 770435
851165 671946
875201 188953
238556 781412
358915 318288
134889 750973
139458 373178
642637 537376
607129 661370
467830 979484
587390 502332
606948 334049
721404 985875
49744 651611
661535 835828
964975 248969
497241 511937
662107 403180
766384 582061
124886 277963
348947 970166
751102 726627
208608 925052
880398 328426
318254 54633
198592 368162
24893 616838
233446 54785
582388 203796
870421 781376
562042 293114
696797 123823
939772 826741
602375 263453
776058 612355
686636 119409
398107 562621
124351 403255
69471 760355
304117 631982
557090 790442
910237 657094
920069 616977
248597 626301
706316 577746
208757 85117
114015 960242
910460 955084
214560 368126
297964 552822
950926 989303
189492 293488
362618 308063
710878 408419
84791 621702
965529 974138
144243 69851
229073 234333
846251 84638
945395 503273
855600 50379
308852 616655
512258 364129
537936 671147
781095 64034
830236 39334
964727 622387
651831 930788
785870 373118
930289 313538
786355 656758
402521 990271
213751 228148
831387 602068
263453 59915
284051 895502
940693 546855
168255 885552
109801 900360
899929 352362
363430 731202
736094 244039
572095 636902
377839 39523
343453 253361
557539 44749
676797 746226
652427 536953
487333 675691
795670 218902
209264 900945
477654 776168
686431 581495
820748 989532
417970 29728
901029 224701
39419 343065
965629 722098
984769 193927
940584 50127
602115 582032
129498 44246
686256 557147
761862 671785
785897 666710
358228 228294
746513 791008
636861 756458
229722 477386
945387 995451
402392 950372
438393 348557
40162 930631
527104 876001
114037 904900
800588 796207
169162 955744
527671 572291
144325 487169
919483 934765
5342 144506
263898 676968
870890 343619
387605 224274
139465 865889
179599 875722
592026 368384
950931 746386
725859 502331
920456 4591
856213 616742
761112 815709
552368 571748
193968 383120
308414 965423
437830 890770
871321 691077
532477 701430
308565 343545
726218 522145
64797 651545
423652 393184
64879 452521
318558 925510
750973 264152
193502 29706
213875 805475
915799 581856
706295 49576
900068 676664
682054 826541
651589 442084
686553 533175
30034 691539
905340 34850
876424 402410
164355 681952
750455 348504
691630 642116
393120 143723
721154 736609
432908 488249
328242 531907
681560 781720
710995 502678
412889 233374
25322 766061
183685 775870
183988 721381
139785 875215
194388 219579
403107 143893
44323 870373
273640 706695
139261 562778
497659 184240
945228 865891
288089 676561
746182 303218
248562 293628
30365 577780
253842 611810
502828 324044
278573 228337
596728 771196
676187 442443
681034 889978
682067 318526
249710 143925
492235 463081
955183 656786
198876 796653
154231 851010
218716 294244
622176 572454
537411 427214
69675 308647
104083 746342
587201 248829
234003 9962
671710 463034
337762 681617
318324 726105
93889 19449
850132 930038
453097 567358
542200 980607
691708 527906
637688 557139
467952 20143
34193 547497
109537 393974
735895 780429
492674 362808
815592 850974
687063 830747
761463 238643
870421 656220
472590 70136
950259 224025
40122 228315
949889 218710
392529 54511
776087 626356
905437 506888
731315 328050
198313 940474
193913 367857
780625 378252
164327 159175
840618 561989
532380 388014
522355 427243
935894 800352
353100 561889
233565 258410
298788 10308
771706 626673
706158 572171
785487 840982
915374 925236
228011 323271
478015 437633
960532 786499
368085 636136
780905 69872
189031 636945
332405 581508
945001 781117
228954 761121
646647 616870
223875 561883
189445 74833
403090 517763
980357 581370
148869 810850
512485 348399
636609 317902
98715 626534
199192 364021
40323 387674
223648 4992
690590 840770
44207 745831
909799 368710
468489 109880
24023 906055
293519 402811
134459 139052
547226 840805
646505 373291
995062 79336
477790 601697
343468 825365
507747 950197
556985 29459
904801 482541
880248 745963
562101 750833
248415 407926
472963 130037
377401 19303
671892 840573
657212 716527
198554 581545
527204 920253
527809 155158
4818 661652
129353 188334
417712 332765
184466 806278
293765 333087
179677 696393
611811 34420
40247 521590
870787 686826
627426 228600
94539 686942
188879 253708
979848 25201
125059 343570
388014 964501
83554 930150
552018 353408
895332 532237
811568 716387
720985 696705
168311 596649
169545 840129
273508 546765
527802 959979
173397 154333
143804 148892
562215 896000
139462 104540
123871 661404
204128 143726
74615 945545
661444 626752
114371 5019
985066 413177
418035 775975
954823 284022
447787 731227
815969 39456
188733 552088
896015 920571
636376 437825
323631 94477
427856 770886
447858 413145
288185 551481
124311 64210
662379 532683
308235 950146
39385 870351
347143 756094
919816 841135
801236 721870
517192 233069
24930 631636
507283 368770
611603 904992
303045 199746
621753 324324
751315 950185
944911 900769
313323 924683
940511 129353
377922 268625
4509 855398
397783 134198
473099 989908
915501 69547
303127 278936
562685 199035
458130 472698
776883 288542
501785 746205
780902 233921
174085 198479
39777 119581
944935 20020
218838 676712
224247 451953
581819 20069
602140 770925
642293 582831
905167 761573
835860 228760
577072 646697
169098 606725
522927 114077
358194 656783
199090 911092
358767 378058
74380 178237
622661 467796
939792 113582
756295 771079
39885 790781
740810 497812
39616 780976
138953 984963
591538 950394
248870 681546
353239 378425
527028 292768
199803 209178
70227 382823
363535 900222
403375 408254
24818 89227
547293 64855
223686 995262
383288 672430
54443 631625
891174 606682
343618 731425
984997 517237
487317 974996
557055 641672
184463 49617
696162 442623
835690 815964
358275 712112
616747 148841
104704 432508
571359 407928
577292 840664
382862 631531
740951 915466
612406 894425
566820 477536
447593 119621
134884 40228
447436 363170
695943 571607
791250 582150
328722 786230
59132 30192
696728 228802
910499 139692
109409 49574
636959 681750
133667 815768
99847 756657
372452 835822
50112 406999
318018 428347
522155 955518
219438 791521
363134 929697
631247 965212
875560 985443
582238 79010
353717 696573
955444 452599
90254 960150
547156 870408
422694 826462
791325 158881
691237 870777
681851 766912
995127 164552
407812 15215
984534 676631
995919 468406
691103 358530
656355 243465
716201 447364
607538 960518
592402 562461
526749 637259
501931 447500
264039 760826
736790 253268
646236 477713
537141 736098
183785 850308
791024 109012
19877 482836
458104 278601
507241 224094
875642 274437
929997 4353
955427 289128
637169 403225
651835 108652
806144 472144
328407 74135
35421 308975
702140 527510
865739 373094
308097 557188
39432 886443
119973 129876
64228 964798
243890 597423
258732 427483
263621 601575
93745 253793
606396 686099
512627 412557
233165 153556
348954 278500
387856 388186
741511 835678
19756 477977
886182 253739
312960 100020
442520 248899
830186 224542
209050 492079
368495 512566
686513 601997
557340 895094
29816 980488
268871 413286
800631 308253
214497 617575
507216 89530
224321 179412
591436 343790
323982 810880
287880 865363
995548 516933
955391 755729
979780 572265
691678 989699
880782 124272
357418 403644
671859 223635
657249 412376
467772 144330
358043 387628
417692 796654
836331 59518
950335 612429
437545 820730
985432 705766
487422 492470
183795 716175
303414 497213
263786 845722
826061 74993
934867 622285
805990 268723
900305 756310
985208 726868
930373 542149
810846 9727
587893 188629
716586 711773
606217 303447
810773 63934
920479 412577
577258 745977
49385 975176
307959 94550
253415 333706
298666 507339
159509 10423
531753 831490
885424 238730
711643 63488
582192 621124
959770 666745
527436 651599
611729 880854
213622 274588
333439 830553
263014 219152
587131 955919
298437 930320
567059 492825
636121 790975
472480 721268
512441 775545
517793 238745
516861 651411
955526 64515
781021 214498
433307 293387
74111 990104
587430 163407
278833 885707
467513 55413
89490 65381
801083 706724
602500 761220
706239 861333
905332 139748
29599 597677
730836 273386
840932 501849
870055 865528
695980 243730
24089 237996
24580 438101
452935 348649
825936 492370
418059 527261
601397 347386
542202 780532
780652 448263
298421 144268
488004 308099
437459 29605
343671 323371
572929 552605
875057 825832
761541 54637
248356 497420
35446 208633
801567 980001
934926 179416
522181 880720
4313 15763
657090 576912
567592 328658
199799 955202
214082 855324
825050 895500
19655 95233
960602 79520
919969 94506
84445 442535
990445 19814
188862 274080
626379 363489
660936 213636
432917 208560
959871 193929
359079 850601
357603 427864
582423 771111
705974 64127
248779 547062
448270 452457
168750 562118
328444 871613
179018 502585
796215 164104
930023 423113
403308 556938
646855 875191
20538 388074
860609 368524
199059 731321
686572 248519
806031 696683
308872 666704
69141 532302
462692 184050
472836 652604
755658 601724
751626 944931
438583 477818
278960 821031
139068 940568
124346 881069
20259 940066
189003 184643
149296 761193
100194 438176
263925 556763
755991 746773
651845 99244
457442 646455
702027 720681
970292 253143
373202 154237
253489 716604
637522 20485
139575 422783
825779 333662
373387 985167
622153 950031
731676 572487
920787 138725
377926 766718
153998 616547
253786 204057
825476 989519
224050 920429
880606 273412
647340 223862
119454 706948
846486 860609
776445 995101
427903 761048
805910 199522
198582 492774
591442 328203
845731 691581
253093 393491
956150 403053
856286 646981
701821 363297
491683 861146
363202 248898
283869 860412
850971 969531
139483 920283
581432 433275
109234 616181
387892 89597
841894 472391
432819 651929
24933 303211
532262 148806
711318 159397
103906 895471
576725 194419
19728 373527
412447 646884
70062 239424
59426 930304
959990 10005
572686 447575
149371 701858
567200 636745
188642 90238
65304 780996
511685 731621
661824 263714
860951 746347
994985 442706
467429 900706
502604 9825
208404 124748
148731 483282
547123 24621
299107 895322
915645 592765
751105 303083
447366 373565
681667 567372
467740 820729
254438 258099
44719 735609
806185 119862
771046 193990
29973 955244
641819 457042
775876 194243
616992 403415
617181 228916
224187 890611
338634 268624
54700 697011
477085 721325
498020 59514
452714 607559
343053 299330
716186 198868
179178 979008
114295 154002
64485 363307
696943 577160
944823 209117
422875 985469
835077 580943
214005 342901
402925 939976
40441 567052
929883 905501
551544 263159
477895 273134
841255 795859
995669 408489
358162 681581
517024 487753
129214 129386
323353 751102
646253 403601
238494 586895
934758 452942
820602 546971
412940 253414
95280 840913
666240 582352
99983 278770
567645 895881
502846 676769
602025 706343
74806 223851
666557 492649
870206 407937
308554 108849
343476 208728
980074 725846
59458 521981
950376 974666
9593 278057
268643 154550
263374 408515
402767 621514
238770 642191
790595 606725
731696 581622
178981 84982
557307 631950
224395 174050
562844 598035
791527 472417
179166 548532
895136 393777
870930 874922
348486 919511
442004 781705
229136 283151
278298 84962
373155 213678
850617 735890
662186 308290
293780 771253
820749 672187
671725 378913
303697 39537
466983 457704
959404 453030
596573 780930
776415 218228
119325 437637
572259 69644
367897 407982
601156 607018
970164 134620
104275 144011
945083 199418
865620 860814
651561 218472
193684 930501
124896 119783
536789 562080
218942 830791
646947 358488
367746 273846
841486 378042
925702 960209
896234 448154
895671 781092
279353 393335
233456 681594
632421 786129
442955 596500
552639 168893
930615 213326
660821 960478
144124 606899
825629 771053
382649 745701
223883 657269
980718 691251
347507 398543
731360 776028
308804 487827
24258 333607
249326 84365
507398 278887
218932 323094
49805 671683
582037 314666
204650 775631
582163 905415
622599 666945
238501 378082
891173 636840
864967 288275
676533 666371
119473 612725
641959 950797
597323 184336
293012 407738
672087 876203
456996 800980
342742 806747
363377 974409
791081 348989
930119 825737
800740 332938
865405 5197
935796 74237
572581 119087
935095 193653
15340 965170
690789 392828
622052 219072
522451 845794
328105 178994
854855 596693
337602 50146
681635 397856
726805 273933
606642 173922
786332 55033
144229 646602
397522 741314
920363 701069
970688 850797
646701 417673
348021 457670
910946 777008
507913 825759
184219 417877
795491 139104
517819 24748
955565 597601
656221 596783
30084 890140
959256 945439
686577 522480
597031 741514
428144 437742
119589 487027
418119 671782
895240 537835
144497 373114
994919 935652
886125 899579
189517 119797
730976 387876
642060 283437
631308 527754
9976 496987
591949 34716
208982 59389
337785 492687
243801 74559
995632 562218
299014 123871
249184 730982
238579 845551
691277 567074
810808 55396
617279 701506
438267 765247
368303 691424
89640 641514
780640 751202
54480 861033
318381 746711
835263 597415
175073 984610
765858 675959
681824 557720
786498 920380
288699 900232
398294 198281
338366 64663
561420 14428
412645 606161
34847 870525
323168 557167
706424 303704
786355 621982
413364 477427
776370 880750
761478 747067
906178 19876
974800 930323
412892 626657
626971 825645
556933 889934
571044 876060
950708 880082
