30000
727131 527673
52675 197950
213070 58432
615858 967551
727118 236674
273685 460205
304097 187155
63549 848685
796623 24102
579719 857043
640881 603357
141979 790064
962933 489224
111776 566763
71443 540170
19980 835407
463824 104308
959433 194883
894939 729507
924880 698368
44785 855658
878667 727442
670649 329374
320819 514006
746880 852290
642389 643489
146082 170722
650287 684417
885670 334512
346654 925985
324816 466858
328899 545013
50075 874401
263300 821697
840040 376143
635501 851288
886800 675020
246063 855358
831327 667012
843240 408140
272108 441205
23612 338223
130676 853792
601920 884410
739818 975821
318172 552054
708360 865657
687168 353700
144140 685019
186773 779288
129969 852549
250724 490891
336486 324727
487617 312658
254682 447694
425854 161085
161845 208359
362335 195238
696589 521205
272385 433120
313743 779807
297745 453623
656493 929060
638163 601444
847020 658288
252102 500519
309626 223256
295765 468342
680680 509334
742617 487113
514451 881808
56078 644647
95682 498790
718715 225055
107764 830354
752444 762704
119430 882451
931420 886263
59482 821901
49946 260003
740818 539341
73892 544184
599061 429003
875492 693421
317252 513411
210921 803562
21639 901095
79189 806802
294376 787594
122259 721223
830792 440050
653142 779407
746103 833669
240529 491157
66288 169445
733100 408481
794820 679097
297830 591702
528549 41580
652637 691295
72017 636843
635630 689093
638785 601103
69440 283925
183945 596345
78751 946633
447066 44298
765800 402443
375792 100721
753004 833301
598673 199911
748327 571980
320734 273763
100340 514934
840575 703093
806784 373426
902939 918640
321213 173192
646432 697987
30752 489491
62441 845622
440772 38322
641507 462333
876748 906729
164956 701004
673349 425647
622408 334725
650904 971587
928774 716183
623980 683467
859578 722159
251542 837709
821952 658359
87015 132540
682077 372112
744957 465624
570963 603981
128281 585964
496904 370318
216687 855863
901988 672825
222337 747829
670688 958332
571530 800665
771202 287218
417626 907976
893965 363827
38163 825873
620928 27464
753606 796325
799172 24306
643128 95121
296650 479363
404806 563523
553874 258979
465895 593835
970466 666034
310150 178663
49522 139615
858431 647413
302104 600340
558284 973651
973236 364349
45367 153247
525374 541991
637673 788629
68372 918794
231068 213647
203704 839334
740808 849663
306894 249308
145177 600145
209735 869764
332677 856387
955971 343736
47064 586246
926038 916739
333755 644155
46989 856523
663725 828702
529042 789053
511928 414077
853158 978805
263736 225333
572453 726205
330751 634065
91240 972283
220084 480913
257654 256080
952322 636410
235487 755481
885010 304113
611696 392760
828402 414971
560966 440701
438522 556740
222782 688944
523879 730257
686198 434671
732275 243897
670316 522811
405920 494828
865821 722202
266182 823341
632707 947371
71761 549130
820811 330275
267585 198414
266575 249667
597789 814981
649389 780485
803368 649894
182455 645531
548924 749913
577226 795408
168163 541380
206288 579209
738355 767363
372903 550816
345114 278964
859472 686322
748426 601197
894423 402209
721837 479298
283740 124664
615027 810917
880380 655771
456911 560248
473814 892256
616183 583333
454205 541849
815615 681770
888586 385647
51048 910419
310260 586812
272111 133736
574180 725558
213258 95200
897873 731750
325451 638881
584708 926727
798365 456384
910289 433959
90191 151799
599874 816731
607432 385851
405407 376592
135420 169404
39887 831560
193446 391844
613345 493265
81605 126437
198412 713862
100131 357842
357925 615405
516398 790617
695957 596851
247198 474024
789811 290650
690974 878285
186078 782100
927504 442555
613851 20018
770657 475458
361582 394404
120162 456239
846590 655722
341548 159542
923659 700392
692689 170707
344124 515803
389474 24788
963245 667113
197850 630303
733421 393805
786071 400931
673147 677391
950447 158635
267622 275184
791942 383401
692079 408021
527075 688106
365672 498526
357828 195367
728215 698581
105269 565946
327151 185391
934007 714078
386307 207861
825231 93844
370144 871276
830947 426565
145308 866721
341072 288062
579896 658280
286998 189723
285878 57553
227831 234416
90578 622976
784417 514601
621835 682904
892993 835293
777101 521172
88678 971155
231551 857650
577019 225808
938523 725249
474485 691960
770632 327368
245677 761804
590999 815328
105810 977333
385943 960131
364182 610068
946061 158537
309445 600977
619270 57226
651523 937090
611019 599073
353747 549018
870475 849884
41318 355421
304585 614961
331693 593709
733314 491991
707294 518233
571908 662798
396349 247156
251657 495681
699846 366689
723612 502057
65585 140559
378419 730043
624963 180758
447058 926678
370141 279317
280031 788736
220374 35380
624681 565636
453979 597464
182123 225038
559277 812937
878990 908296
245508 792564
147097 391269
656429 657614
218005 777803
789204 756679
208119 837667
943233 699112
413281 654236
821630 664914
331866 648836
239788 117450
154122 374808
386403 335743
861246 617077
507509 933557
469591 895559
54384 868673
498678 483856
47776 535139
41124 499701
265890 715325
560220 437886
199416 861394
801760 471607
796294 447802
532936 465679
266557 458756
727742 408695
159906 885046
319193 432053
904667 627667
417507 56047
563186 374771
87922 518650
365798 552898
435096 942710
848449 467531
119205 937373
792978 772938
383955 345248
323938 164800
247031 791374
850005 295824
842029 440474
284534 757132
619041 438216
30228 116563
959631 414646
478863 883548
23856 486279
765803 400114
934813 324154
74873 362401
517477 768381
317868 634039
245326 404631
319765 297874
682334 271117
377442 59310
324433 470394
678099 586380
274954 441223
208246 847232
58838 850491
876419 373428
708842 768928
546959 410134
20325 835461
329229 253610
37431 826344
522271 745493
198140 63031
854074 334054
40285 678485
580961 193920
831048 685820
561607 733269
29237 872319
374327 913317
309419 186867
760110 92012
677410 325795
316199 250184
553250 964770
318240 312111
585021 443529
798089 294753
308458 583395
595210 446898
469196 594146
193816 70145
231755 754920
910787 682510
653574 645907
289705 476668
161992 175268
772074 245360
104349 882277
834992 280366
312218 304458
151713 751185
652013 688082
134124 689672
763832 963757
137159 611203
908679 691729
470040 265215
364746 550961
160321 700857
447156 331871
727661 970515
209627 484649
622124 872435
536903 926517
228200 272857
145884 685513
490211 383191
767898 315869
463863 612362
116594 913712
812939 745068
101399 570269
585172 965296
548999 917567
792124 264401
21256 975757
386618 601926
58032 251815
649174 259726
652018 440299
89195 848002
463651 70790
621343 724577
338854 877084
179858 732774
802617 307072
752994 620177
439265 550877
753239 707573
900917 672779
261096 224015
555873 969292
811886 676213
228888 291506
51436 242728
674357 590321
625611 917724
292865 111109
668629 726590
902134 474305
701942 629897
795013 750697
389386 324264
121351 408804
319445 328972
980124 339552
210176 233407
407911 215173
230990 559496
93335 131759
741137 491752
403160 288569
348282 583204
913595 738496
693082 242498
228532 269384
273276 720996
694390 574541
630690 211228
246286 695062
318217 637184
140756 538896
55411 201141
841919 685896
716686 469187
61571 455288
705863 854887
44610 277182
247979 528847
190157 789260
791361 760838
877038 301111
912097 680499
67574 577321
554633 866867
200908 690425
85836 158434
43679 848806
732382 398020
914753 431542
720291 118215
907445 736737
89862 528039
323476 315646
939966 908078
830055 896963
56082 828419
214995 749100
287175 662985
42805 962411
525278 724509
134418 828835
587669 822799
559202 812755
288139 561951
260013 205033
758977 641374
186496 77647
517985 224722
963180 383530
772471 336313
648364 245895
414567 893572
575395 873081
20210 970202
284659 123288
107548 142486
208175 63142
570991 741974
885285 698015
618430 341450
293764 231818
364879 259398
292234 279152
60177 863792
260901 676714
907730 408589
429218 924963
69157 924725
493602 192633
61211 813350
351792 230438
542985 752953
117838 797268
556469 743099
307178 511908
208905 851584
819146 272321
386148 566472
240381 902380
568956 211477
618117 911587
278801 430600
445127 255317
648349 909179
394728 273069
316721 242918
831147 688760
173219 551398
745555 648317
356075 216626
67427 287297
745936 646985
923145 869041
472791 42246
500252 335052
121903 580954
52919 151949
871501 893227
515207 731797
245397 817787
519405 720541
852088 888742
387718 330880
619960 682063
154544 748886
465821 428685
182868 711302
189667 884299
34645 183946
337781 536488
51519 941457
978845 421686
340414 332432
525907 391810
31822 902570
348102 473154
37591 906059
589065 421842
787738 446068
173130 762436
515640 628825
645676 264696
701127 809771
284396 799056
651195 351369
192938 562378
526242 800153
144846 592396
720525 116052
510704 132087
25881 41830
278676 56020
504899 596013
165910 884215
29367 90745
43895 804046
654381 424953
839959 642094
367608 262789
696196 603602
102688 623497
49010 316242
68861 978876
777270 930690
611738 775072
740651 477419
712602 619475
855935 968484
34140 946525
209558 828601
419331 243887
633951 804992
333792 281023
337590 853141
478140 390306
350209 294250
959251 618951
755193 673200
654145 733410
55006 241943
29091 867549
36537 960090
252964 760610
791710 390788
879981 329015
357060 216707
845681 456390
694262 564959
130362 407103
93866 824646
811711 668579
808872 255349
501870 521271
942168 725666
36627 903874
692434 240400
786935 973789
875382 385941
204828 33702
615989 879456
354512 845399
831771 677917
645263 917943
976807 406795
378390 576019
58723 317299
915619 299062
177891 432124
211517 458441
446080 304406
705544 554692
674375 792488
492526 377526
226944 759556
728674 415801
864803 485328
350688 941227
118832 651584
307968 793304
128970 960316
942363 725398
368476 869676
194070 218226
380816 310532
184814 409436
325954 182650
678009 491021
493779 878552
210099 802543
474825 508610
427011 230085
272071 459094
249095 406167
43569 819442
210669 798961
533944 745556
591961 348649
722209 834985
381685 310845
559057 890599
778968 610273
439395 922237
263671 251616
861232 643193
343681 751714
859939 363783
522962 685142
39209 531661
290826 569386
665433 618018
967582 648801
67584 870571
398564 590465
109199 953666
614590 444010
42601 963618
623712 869044
413724 756522
726983 100629
648732 258657
130655 976973
208790 61601
21377 951993
367920 132700
920803 425741
533760 778392
563612 610814
841684 372759
932462 407123
86936 473112
596476 445675
198351 764431
788482 660403
88872 820776
342033 316812
46027 434635
766404 785082
220743 181769
614972 287735
227675 76765
528914 734220
440996 660301
518351 305377
247491 33738
618198 780353
295362 812779
586630 662389
926022 145379
88224 840237
528714 402977
676575 231183
618438 155916
187399 229383
557250 740666
660314 817156
675772 79097
209795 804956
154003 698496
788197 415513
781986 892177
767817 91917
640908 672202
623616 184138
529847 443360
972070 696128
277910 24021
457691 257447
458866 345191
900714 918498
154274 693224
769376 439906
787445 783382
253793 544121
71701 25521
848014 320750
412932 563143
383302 555562
591093 418270
912658 591733
120259 940238
805869 965888
948626 694657
44055 240755
109455 385334
42926 529442
659282 730596
903549 690523
332481 147053
602303 277169
133981 347614
762635 832836
66427 840072
470786 766759
636311 482333
717210 219304
653808 478630
668029 598494
887496 335392
366296 593960
518099 731367
408294 610618
495096 373524
659659 662186
270653 563625
606975 384540
822269 810925
837880 365661
279439 816407
772565 93293
368697 292587
28465 560991
968477 692362
261975 425394
162749 882455
515585 606355
220580 852693
891839 482568
529910 194393
908469 676477
543251 831308
273870 739744
114136 252460
354727 952613
833408 358798
670583 547744
171017 761149
240323 890156
197622 55748
799690 969430
283108 440186
252353 55997
517025 729955
530444 833468
55847 450474
146800 815562
766274 578704
116022 832643
659135 660831
90961 823078
965734 618465
928193 380398
160479 733446
426714 246625
948348 154881
290028 656043
653499 703299
79128 296745
803549 44049
271195 49234
314372 562284
688386 936266
246471 483298
757469 730475
62334 515975
495807 933963
763243 563310
476278 881242
788483 906072
437163 595847
692572 541860
737946 455915
419419 241126
685561 684304
903834 673357
185130 522155
756941 848146
850005 629789
766916 284294
751216 702080
139046 686206
748760 847462
866165 670517
335759 333107
976677 512608
236164 478232
332581 637428
435065 293935
172950 674069
781050 523893
119995 398726
74759 53312
555516 742033
930847 713109
935007 150914
417457 209472
344617 205816
323339 551084
559067 975690
969060 169752
518213 889009
59534 397516
660818 920629
748045 495275
38816 192440
803281 46163
322388 317062
614608 914225
608803 505602
689451 239865
477439 762166
556078 563423
222486 833842
264576 226459
422074 568286
763001 44650
72284 857173
337758 287658
309331 256538
128413 943335
82410 96541
129787 587433
797479 67088
114155 347692
294565 802147
602711 671695
728460 888434
672215 532306
908139 434756
610508 582876
786123 715132
69156 914606
74714 928463
131093 53722
788906 908213
377577 496260
349325 295930
75557 931315
844471 381349
303298 475693
594052 485492
95235 880822
246137 844841
609118 685277
670654 871838
394411 430128
129105 846172
244921 767946
664537 509329
354045 551496
613717 780185
781104 268760
591024 712386
163470 750009
359773 940763
29239 784028
736086 490397
93958 764327
815829 407861
417021 898760
494365 68305
807381 419003
504779 686986
603832 352091
443861 391211
725413 491593
499756 667503
599954 356065
141711 565085
173337 192173
442470 935506
275628 100556
258844 429082
345353 283414
25224 830258
279505 724590
977579 271717
872660 846006
364466 294981
570970 760897
477419 104216
65049 857010
305690 532161
376403 623841
203029 479796
111646 389262
363312 182638
260734 275052
393458 552144
481472 333739
741800 490491
437041 256311
773900 567354
784594 301664
670142 868251
167487 757659
843658 732328
786418 392846
877202 733382
303871 459023
272385 762604
875585 842180
714010 254987
144609 501141
22768 834906
273812 69799
598201 409054
246505 560332
326966 192608
825359 361629
665600 239651
144117 552884
730959 887340
439738 951930
794342 263022
494750 223720
221912 23099
515028 675861
304717 557016
518664 771116
49348 777661
708242 775226
129003 156036
706540 252287
826038 341180
591302 350931
345970 149391
288438 776909
311015 218230
859100 677667
232337 282740
819889 899310
182452 411768
209532 622632
826284 648985
241879 44078
512972 359104
547538 713797
869612 731132
891465 332049
854450 733221
518989 151856
472388 266195
896416 737486
244912 501729
347576 210970
815995 312147
451999 93971
770724 746078
656839 622099
940960 563286
329832 556816
147836 867510
698153 777653
888693 723320
208252 798855
264301 446461
878709 630304
692850 733263
560161 614981
63146 962792
760934 605185
335443 639144
605655 884304
945490 414303
887845 809997
754677 822217
198336 797743
139170 160139
616827 770680
730138 450965
932637 447076
295694 583608
579240 971702
740658 490811
283948 808790
259232 443080
564848 438254
554670 272898
601758 428691
349830 291060
607779 429516
97232 976219
301340 582712
437086 403198
327605 332138
726433 825940
130008 857676
120120 795552
38597 874360
953453 415504
500204 488030
403755 588594
768960 310829
160361 192028
830550 743231
214251 869089
662341 501780
240425 218352
884411 912450
506020 86872
42369 871472
830105 626246
718315 617369
753949 538157
742286 544330
364342 640280
557698 804933
631672 632795
224295 776118
28449 234064
132523 834737
604776 51121
762598 858649
250741 501108
324088 434486
707040 866867
46250 807395
919051 328559
377312 304939
106139 570253
404517 300044
545788 748180
334559 602236
972707 692171
128231 843496
788372 915800
99294 886325
920591 294828
847266 381368
383848 44456
692322 778591
335311 514766
825426 732995
741621 455224
899174 613387
399959 819994
556293 63659
406661 285172
793800 390376
147725 759369
765339 460993
339470 285692
119767 249701
441689 858075
154830 573033
535944 744741
896677 662057
397823 765919
736255 850204
224934 739624
696594 99094
631651 844218
347140 725011
294908 560604
938808 630645
210236 72657
289862 567617
310151 506398
938836 147367
450332 283468
964851 536897
637037 806334
862146 824963
118364 798827
743240 751673
608653 435251
369374 649456
491824 711533
843596 371415
666197 517804
307099 187232
358813 967186
479174 333682
276634 818727
786754 914107
411959 551186
874898 673607
37779 891034
197021 749406
178568 723590
244117 712288
756413 670817
242669 780760
587678 426469
281956 319498
342490 606100
323242 253704
644265 262361
193219 55559
920444 338200
168597 35058
846893 705742
567572 426727
229536 895926
741414 759735
265841 136307
974077 413181
62289 530005
735706 93368
256460 667506
373444 878035
708046 465491
479167 274259
282711 61244
108193 610215
741097 546038
333678 874012
285030 170959
191810 680409
624392 967830
890269 727118
30450 875009
396473 823903
194748 793705
186997 522277
880701 695310
54716 932107
517533 729498
346401 466092
465009 589575
61885 242679
875260 900954
250804 494421
663411 346820
221655 697498
700302 429553
587704 311131
920195 831224
765456 580980
214647 700393
784916 637910
464404 608316
696269 282797
114409 807965
541859 345808
726914 441908
405471 290450
816420 434357
263636 203488
569765 604001
29193 797964
425084 791907
684337 436595
209352 457033
763852 400605
500004 501527
934929 910424
349995 236764
868848 615083
184485 525770
164950 116604
888667 603270
795313 829134
347343 548136
130505 664139
829364 752097
633738 852669
237912 584056
369835 625822
119308 565517
467076 45141
221751 750084
658794 418408
298179 529074
903138 416779
116342 703799
309260 509455
620899 402876
289370 302255
901781 331779
221027 24208
649342 722336
73146 975696
625737 919588
666865 828865
339123 333539
740378 320906
494654 470251
223437 753140
845264 960421
230517 400450
208448 683447
278406 566822
497890 369935
750636 391151
279686 184156
370226 700009
688850 462399
198604 841143
244510 249541
151725 868606
250119 416794
359984 612516
326034 273540
584882 900499
359708 660024
425865 495261
423790 597799
722061 494724
596283 468036
765064 849179
803524 749284
880178 360668
806251 517840
788100 762477
159130 544610
131889 155392
510079 126528
53186 41267
233296 585647
34180 113601
635191 943702
610741 414858
343162 854827
369962 307712
283248 288995
117158 912422
239431 35439
797634 780899
185638 742146
170156 597500
919757 857438
794747 700159
677358 533177
297261 230338
289010 247542
584828 427963
588746 937722
798428 470557
72544 546898
275950 76389
425204 902108
550182 823483
409338 300574
130615 979569
31691 939350
381781 572300
508922 357711
631336 607150
87423 26826
826386 682417
217343 883034
207368 213699
171634 884823
966376 415427
558051 635437
300024 595147
721928 484663
372855 679973
928141 291997
353067 242110
292875 783654
140188 787594
218443 920743
362460 307400
505323 913335
432087 614523
876251 487661
214910 183792
361144 255279
333001 648280
364478 616004
946280 697322
341872 594308
300125 188028
188915 785989
259291 53051
607174 162979
658230 917950
576175 203267
637678 330945
686852 720362
97649 559478
726230 884562
650018 600498
490009 461708
35537 307852
925258 707204
841186 489902
251684 760418
766310 364314
247167 536342
341875 203252
596141 428619
244294 582258
97883 892103
346495 288695
180618 678971
65875 911016
88255 524642
756930 458781
637872 557905
67830 565723
39301 497838
872009 821656
642725 98415
339979 330385
369683 808912
402871 470952
639709 449823
350179 547983
392925 172048
402024 299980
86296 109982
51472 199977
370719 462506
468194 880975
794598 654399
714104 534507
186337 730741
424848 795639
933613 887841
726538 526863
126862 134074
591393 772810
106013 830451
938391 727720
673690 861960
399715 242809
530168 741218
871186 368899
951905 181281
522700 767106
21154 468120
752120 753414
928049 396500
187015 95425
122741 763698
539543 695137
834338 397808
50310 119752
359085 550757
450238 256654
146086 381810
253079 811699
504815 933206
560759 884782
130738 855626
94189 197553
937785 682145
136261 569728
509174 883626
37941 184270
622461 777374
268069 914296
99173 567523
975970 432801
184762 756034
129590 860739
795572 717497
610640 606757
634976 661059
770722 784458
800790 265448
89576 35280
754375 658211
803645 932332
725043 94264
496946 748544
213704 61591
236491 213588
598386 706881
274287 711409
397571 357052
758829 410868
392294 176552
544786 695150
653259 973450
68013 615595
498176 91824
675267 540088
258874 189979
822480 647659
444743 25972
893571 923816
311881 621575
658396 934712
786094 900780
696755 745609
408167 458234
340845 330997
619467 189840
139870 456309
820732 311517
531169 691517
257137 455201
974986 279133
569797 889124
40601 872876
845319 369783
311828 619838
34048 771227
124890 627868
32127 806763
885376 714475
302552 140786
273161 716991
868440 699986
653121 936380
555880 744201
552320 628030
189271 460485
652788 655563
692644 841514
116181 649449
713747 836076
548778 619306
147455 794902
458623 504817
454149 359824
408590 363895
607775 799006
302752 597515
152048 554152
149587 592678
47635 437906
352758 813182
306195 202912
193418 792627
802750 689881
359727 483511
463168 104127
767795 274603
770662 340693
579675 512186
853496 734225
467307 588211
70299 126582
111024 974436
109035 759545
162574 803227
812632 531653
38665 972583
375774 456029
703598 449470
125105 961854
145895 814558
112259 601462
666927 332356
180457 692715
349147 293312
881340 330648
779657 490022
923538 881973
763896 398291
824823 401812
894991 336948
330016 216174
55533 888642
908372 607798
885343 935896
31334 530479
597605 354928
259009 804738
479140 71846
57287 171666
133571 651832
114451 709282
32966 385505
49044 893840
855219 77837
137623 668022
84935 542442
755089 537326
252514 267860
956493 695266
47787 135491
21868 76808
760479 751743
241433 46891
55313 911622
586386 716150
589897 915883
246859 275735
341660 547748
370747 280477
384653 342637
810402 574159
49944 502607
515968 665516
709551 918012
475339 440622
711789 862707
776708 922468
786979 840869
873067 709655
64299 823146
888426 918425
727623 605583
331331 561714
912794 740737
757350 715904
788471 537624
372613 302554
308491 540143
678819 721414
863047 882162
450254 92555
528043 688691
958482 657266
970496 667532
87314 836810
620301 758717
356244 493325
458782 608749
278820 181274
28753 806098
97148 281614
56001 518547
920245 836980
34969 677153
559266 698838
731802 122405
172790 211055
48854 893985
611030 355398
112729 881598
107864 896926
722629 487963
945831 549225
438969 833622
542321 252804
729849 799254
795593 448733
310234 472086
606587 793478
768120 352748
48677 910400
193060 728648
681285 556449
58770 250964
341235 334147
128990 863596
835195 675539
198366 30097
205797 697457
518257 588649
960670 696936
592500 258633
391317 338338
526165 210944
133798 166435
270351 852471
329268 628497
211823 734463
870298 700541
198103 721790
130545 347095
763647 656323
19660 547298
398563 653172
80599 968821
105965 56996
784373 635233
36212 827683
617822 402514
421982 598454
517617 734941
223027 501888
255764 457999
368167 730609
109567 31979
87964 835674
267298 825139
644846 919381
755621 568696
336885 266965
411661 584566
485874 372063
230128 509447
224381 832903
352044 217756
198974 840542
263423 829488
249639 476846
222128 706848
830224 274415
725635 518182
818765 230343
904572 614039
286158 168597
405098 236440
243028 442631
246685 537022
686184 677391
258685 248052
735187 383783
695120 666583
498142 478620
228926 296798
953895 695123
898576 590384
498085 84086
102934 593841
33134 333256
257181 801250
164609 199557
34709 808970
611696 538812
769390 286270
721484 474482
323877 270939
413027 906197
280010 127882
149669 705843
635504 778787
244176 439264
222001 154517
140404 692616
354152 489975
197424 109252
744083 892741
638941 847915
193250 460668
314980 641679
223490 164450
772115 303817
507321 337722
332826 653545
920018 698854
608229 674048
749208 72944
197221 679496
935487 713661
211757 870942
68578 536988
88923 847246
723133 872163
880299 851383
310900 504603
663584 539776
789527 741496
344134 625620
219773 835101
835079 896853
521199 768185
971701 657464
601451 427178
646504 849305
752353 499075
91889 546852
335682 333487
615230 881584
393243 493024
814001 307158
173586 418784
733976 123735
141366 686350
340522 265583
893784 730523
366427 399725
969203 657118
67804 562303
397219 218991
710527 564575
405516 379252
363681 627044
671944 950112
500699 94195
147321 599256
968392 468755
318552 265425
40847 969778
375344 579841
896606 794176
53000 816367
534137 628347
281520 116656
317993 241559
627248 311231
62291 498420
618450 795776
237746 837706
472932 928647
488093 753592
61919 642276
637858 666995
243252 820730
823608 940691
29603 821753
192933 772431
281416 127124
354319 940472
954085 307952
204234 460205
190130 766330
673778 339928
375221 599469
95760 352187
23244 529730
716111 406063
596993 613473
781262 299020
48483 898174
572278 222891
758841 53302
401376 655447
695590 195937
324599 217342
181101 757171
233414 36582
51406 908566
308354 586005
547998 286961
923291 862377
211344 758741
734152 727805
242308 629429
840123 319228
50248 242442
668856 515633
307173 187013
719099 784266
980046 370872
906638 687602
389777 933140
669374 407412
314038 563344
250016 481947
90555 890828
773387 746665
896558 929213
626327 924501
649040 843606
279134 862974
798692 491032
130552 790970
676487 441056
140389 714186
541132 350289
771463 799586
287044 579554
594388 348150
815300 85420
229543 853752
419635 900420
695746 605604
694048 841507
162351 957200
587174 520414
39469 824057
650950 659595
681406 420818
177661 206235
928933 914502
758955 608861
136541 667430
716623 530226
473554 532672
908660 678465
244294 500437
649806 667304
222765 741229
617929 784165
739532 455401
800534 739662
349152 860111
541605 43158
680127 339012
369051 683325
138165 790463
119873 797889
409494 253189
742728 486423
127179 960850
693815 326152
49473 874487
323071 191154
223274 159118
957347 696278
365478 644928
75920 115939
310168 213775
234245 414085
864968 890021
63057 914417
719159 908160
698734 910685
273475 194939
613383 302978
82925 631264
452327 663356
807190 299254
244216 205482
870707 909771
31204 868016
733100 395248
625701 609859
446992 501431
292456 548198
817021 77615
772486 568377
496898 780054
307485 506930
812187 668961
804089 710703
775177 379540
373000 225522
500617 684420
541722 716969
845535 660419
212606 696429
118632 701540
166963 179346
685412 536951
121219 382741
746447 658309
831114 894350
387404 621287
760106 637683
136606 561918
118279 596235
507307 728019
123231 131320
354800 569198
811039 668522
37493 935061
62133 951741
246015 34710
208644 71889
749314 434838
593405 300724
798021 682988
622899 425104
82183 854067
786571 721592
514872 338627
123567 57443
253539 55859
888583 675272
35002 769277
52051 356409
710341 813262
45779 166644
479688 696397
955551 680437
851386 734745
497380 55204
138851 592125
887599 674866
585006 927603
481662 72776
297037 133762
800252 545508
621381 720008
94884 156319
436030 70324
227322 894793
313352 626986
653817 912297
286197 761488
976907 677475
626961 471836
138332 50509
438980 553835
358147 301889
919246 344005
605295 203992
223235 833322
826322 404340
960762 657070
959684 720846
892898 730390
52384 245193
279998 715434
653662 776188
853629 386402
439193 290535
769256 751750
245524 758326
582484 767957
124403 834504
503547 881166
880189 931842
242990 829184
972515 182258
519102 888584
804120 36456
79883 125173
84948 871883
536879 743773
895685 411110
301595 470030
816322 669100
264317 428230
643221 965136
419702 370366
220257 472714
539194 42541
754077 837926
319035 267702
609564 162063
326034 272734
81498 629237
36177 213892
324992 481948
803276 787135
358603 302925
179809 718100
225520 214300
204910 251823
826971 674247
43003 846127
855242 934759
774984 783541
269725 747343
299223 229581
572774 43375
620492 256692
748849 825553
948301 341817
266176 45361
740744 454132
397998 930971
330667 258810
640822 693522
305070 617365
692260 95886
882606 842710
61192 969536
881456 408743
246522 860723
215617 470156
227354 265999
824819 691078
530571 582783
838813 640013
692647 173399
429794 614803
612045 477398
265759 557613
497359 350121
483732 386747
677732 816748
216895 745885
837201 396617
487535 98424
312032 566044
708896 475910
119606 406899
184662 589520
882161 845387
871319 702066
323447 160103
52229 591405
866939 823073
636583 56429
614972 399603
211717 687028
51416 247593
696734 315800
58905 598369
264455 662690
446830 331694
937448 323170
187273 737205
696295 251956
821064 435976
308838 584327
845357 652563
619961 583840
857489 367644
26689 866852
406325 162319
277081 237161
541191 723027
605909 517331
950369 727850
772083 270614
319482 468391
155176 532973
170211 210683
780809 384409
411469 602241
478246 104034
368754 666986
189668 571339
412463 221287
58318 880968
66014 834088
950395 678406
266935 669330
454646 322384
268698 61251
186405 688499
674302 327228
164240 748596
831261 680537
237677 632878
199710 191328
27838 292413
601025 457049
266123 535655
449354 370313
637098 686729
338766 588872
703747 330360
934905 722254
375146 813859
25253 866439
42849 813516
650510 495062
491317 683854
542125 834664
382691 346299
862148 710522
472319 575459
768529 730488
828759 694068
59542 877718
55101 144842
905899 736469
348742 864507
515780 658619
97072 323027
607655 430405
671622 951889
724379 584335
811627 302379
168366 758549
62724 471997
694643 530293
823694 635370
750707 276695
243196 433462
280202 192781
526473 291099
560273 886972
47269 896533
829943 650911
436227 215365
222835 202693
756579 563169
55975 455752
152721 758700
391034 623218
780277 298905
759116 721555
800761 133661
872195 846665
207398 711810
758485 535883
601011 802508
75457 98849
680124 504239
670097 404802
564312 276845
409416 448066
203210 632925
383567 423386
880363 674554
689373 933948
623811 969103
650769 413815
679652 578556
196801 679861
373283 598104
276958 577659
958754 295761
233754 452674
229349 621769
758365 981576
183835 450255
326015 264995
753095 615188
570594 897916
347874 859380
925347 389458
773796 20397
598364 954256
384562 717000
712298 448438
279895 802571
689407 465730
634266 726651
609563 398292
645559 737026
293035 248794
328241 852907
133461 616227
796880 828517
759291 299440
752338 277559
629196 311957
68477 307678
80075 101068
629155 169391
820300 605669
161978 875601
595775 667678
208956 759842
357925 245884
792969 959120
759012 743269
932879 400566
122834 655629
588577 28345
722627 486343
887156 698569
366185 301190
358671 918683
369118 312653
776652 930805
34072 101396
684613 578839
630965 463477
534863 678956
787981 615453
238089 278845
362280 589518
792134 260761
798669 652248
600329 394439
781195 306152
763155 92591
124585 955236
88737 78334
602662 751231
77852 625913
652212 703658
838956 479072
606379 582951
31520 661776
566259 560953
852415 314350
134035 834506
238085 300424
618748 681585
852819 622916
129147 528754
284004 814582
332188 590714
405723 514552
158291 958163
344460 740528
403680 229451
307447 495921
103874 129854
31520 903769
205478 30328
633168 633853
311512 428203
881371 909307
332311 193401
215706 759369
924739 578177
259207 665687
460304 545606
19755 968684
368789 264441
227280 493663
750352 719664
584560 881168
627296 331673
243568 778892
272761 816139
696963 513768
802625 89509
764778 633372
218480 215653
43439 274016
233353 841878
52920 909674
115069 126376
649822 220485
65500 241658
534039 248513
632240 733533
38410 203725
369818 722578
254911 807806
348448 279241
648313 664690
900637 406908
250344 574094
197638 690362
930272 624460
877200 858909
881333 854360
292129 811228
746450 785795
721156 684822
459835 635537
200389 697377
953712 635440
168637 406110
561720 440134
233981 684458
304039 611025
611925 783549
778002 873464
486289 722877
488766 661989
310917 259520
788356 519947
234324 451867
781747 618802
623932 768345
282432 924222
173736 766171
531297 513508
876633 859587
778612 408983
209847 466100
613010 491656
818219 101267
152383 906437
677249 919798
690996 334872
905953 716266
176531 433932
274206 807465
488269 684385
825330 670447
388906 621582
61263 602231
33696 783692
627139 587527
740708 473242
904594 823365
978726 413769
316109 327200
51223 156728
522496 726157
653345 651662
618784 610716
87660 865262
391679 608241
505174 117937
501512 932498
674412 886451
427470 228460
235964 775117
939850 731138
902909 590990
498651 908607
241493 636275
53298 198890
843352 400566
907407 315040
690013 904788
168742 208759
780901 617380
53549 849495
888105 841657
309811 498338
216207 496515
434387 613904
244867 540329
493261 47149
153887 903758
959544 306894
308499 255197
762321 357063
512401 895705
134350 403242
574601 900088
297559 453078
203336 30226
842773 476144
616697 475509
41781 947192
345018 593681
864421 877808
746704 279975
978988 266463
695273 775409
512145 592134
465555 330901
776814 911346
642795 320385
288847 804416
413366 898270
863078 381988
363789 474891
448654 891480
593192 350105
336938 756219
555142 743409
421516 615026
555842 707635
260307 840903
917740 313425
239909 405588
320418 603571
67555 571826
282813 562579
731596 318787
118897 700498
83677 826149
708504 857566
170556 594810
477939 259168
928437 397555
794137 644494
49108 261065
516784 425621
386534 238893
434272 316916
919920 426792
742813 791494
295150 545436
674226 952207
892344 732200
541677 353853
400031 658539
354252 626612
693545 492719
540761 246830
521702 587574
881834 932872
831421 679759
626907 928642
884902 627997
942799 566799
324996 468131
817843 804614
729755 402571
660785 843458
635017 804675
768019 349578
435257 869797
53506 808078
886989 916268
70605 108519
510290 352802
777717 837382
185651 454346
783012 299423
673060 970659
684852 776012
733991 450937
35778 770167
923090 699167
394395 189179
728276 414085
55315 978494
103051 133166
238216 899695
580608 959044
765975 915892
373186 937052
962863 694156
844286 737743
519246 893770
796000 140423
43851 112132
192147 730318
115628 134665
335611 198149
67095 846196
47383 956645
440678 208825
923332 421779
130031 855166
468308 352496
924923 412567
414656 236422
570334 969983
571382 331436
336476 327521
101086 889769
791698 781473
874937 727719
473344 356525
350058 614156
769412 749262
826452 692163
363635 338449
697863 639605
177590 725880
684309 417873
213708 457617
61812 528979
242063 432058
466883 558725
294449 466069
713841 462035
251238 470132
186683 610965
92709 865337
391984 213791
383898 282666
54887 823419
523334 403074
235089 854446
87138 941626
175018 637234
734600 801119
782032 523071
312315 839951
350861 592712
331913 256975
61909 530440
190254 762426
92857 124418
292995 414567
455203 554879
980058 325096
683324 844062
142621 712148
211489 485696
58557 976034
746172 635220
418215 590175
452121 337573
88278 886513
450869 602442
856371 686492
606566 801497
493012 223029
571874 555653
155469 899158
393714 431709
135049 718653
687709 228745
40846 829415
291331 246315
243191 45117
977387 662840
346216 197487
755801 824875
901356 392745
658012 917776
313209 705833
219929 479305
98720 938607
275781 793180
726153 93230
193875 113362
119911 347342
556200 706672
709980 511543
814840 76516
582600 954232
615639 611283
356334 592168
534963 305951
188294 776017
786687 634320
303441 699464
649590 261171
143833 692085
355992 220290
912510 694413
787755 300844
541873 387553
127403 582047
860309 710925
749362 849927
859379 483810
480746 688238
400007 162730
255204 221054
428789 875781
698901 182056
895975 824186
468723 560836
922101 325870
449356 501798
60002 893943
272498 916862
611430 439261
912929 373426
611497 829799
222339 777099
322629 269725
231312 283428
450939 622769
290579 248784
150621 686568
144137 866122
250183 274483
55335 815028
666600 248650
645289 732057
664981 413871
456715 595046
482238 31695
244597 730654
246667 855040
870318 914264
78240 127410
871326 848247
521992 892071
830636 412868
516264 698530
117025 795204
889120 690800
162057 657126
26213 452324
431777 807508
541649 695441
309293 789883
513746 635430
648802 650167
931813 624987
199806 850049
929205 413792
932797 696856
756742 714326
139766 490078
40138 969842
295513 534343
344205 510025
124178 686491
455694 68887
399379 192658
733574 753260
208064 812138
929374 325409
218152 34102
770760 305013
383433 621882
128564 857006
636336 146117
203049 880082
407535 750986
618074 913827
465469 579241
828341 678625
798914 544483
945539 690965
651777 434945
838365 735336
289297 191066
615657 683127
780311 744729
310207 214747
264432 201314
214800 693378
519461 160684
598196 409769
503659 229038
222933 702335
241364 632235
792151 798263
906543 437089
721762 483160
783873 298903
459620 346410
448161 375690
289713 869156
566752 606373
180095 821941
153110 523440
902795 822820
199740 462744
375180 227863
686536 579643
48905 245984
463001 596877
840387 643855
40985 821441
117819 238299
553422 866198
708059 477785
108861 893681
122620 525227
614396 881324
395654 214170
726255 488287
797665 378678
357229 370913
208480 580632
763879 593908
415493 488905
593175 350710
361754 218633
145741 379902
24667 827311
870413 635413
769465 946619
323573 547016
355894 218936
653215 705796
488069 846580
70069 920064
475996 763612
577672 203167
332463 332558
906895 610296
682214 941302
109963 786695
838004 723553
525595 450672
893231 708322
217381 90547
521916 891843
747012 630719
566539 647363
742695 488067
89892 532778
738573 911336
181417 714929
867417 615455
748945 820787
584665 661675
309970 572367
147190 817336
670935 943876
725943 399902
703939 626822
276686 792056
922374 586467
228899 276559
443533 328189
285319 866955
882127 909676
164705 599547
193413 80643
870086 913500
487401 661834
878552 707524
604297 382921
495471 780277
39233 104896
45896 863978
91171 549381
650941 317606
259026 254553
528579 752898
595523 403405
741440 831438
309493 576796
822544 362762
489061 97312
249386 69945
291536 811483
893837 702210
521192 890547
176442 93537
275849 814032
789290 758522
105800 260054
940324 718120
319987 532152
765793 352747
889560 939171
743811 474667
34049 843459
484363 530233
508680 231020
44097 961641
672971 924014
226548 848486
699057 578032
501755 704807
931944 638839
658371 608686
919379 841342
785954 727395
243232 203214
305279 585945
794068 965048
21528 238015
538287 839625
274053 738589
521255 732394
501415 353533
402701 237159
674718 576893
493917 495619
80975 590752
682253 772914
381576 704096
460929 632149
531060 627423
837809 721303
112076 594629
559617 806754
238351 259761
644876 783131
150783 910971
762552 642791
284561 253726
351154 288922
834941 89497
865077 389489
773838 656317
455478 887633
197026 68945
443758 922263
358377 872821
744607 473604
577291 485870
347285 257793
566891 278013
745408 467518
255154 429558
64076 47981
257249 33995
532394 746643
218847 472295
783951 303342
339827 159029
216211 72867
665111 242638
596000 614649
535813 843946
199689 839928
349860 283672
362029 736532
926270 390657
673734 537930
743458 460836
803814 514880
952137 611927
379596 303713
691106 431895
751481 865119
660969 978423
655825 416078
189326 474031
149726 873672
306934 247003
222862 749421
309938 248132
140651 461213
516039 329882
379545 209090
382747 277256
354579 805725
127957 803960
184179 458853
607423 416810
393730 593297
899486 474677
110736 975706
204107 861676
946265 688635
568720 373089
56415 913076
344948 207522
772959 734469
173159 99898
533430 590032
221751 736440
473104 565068
168590 117849
30188 801014
636593 193855
894857 309434
282306 240010
62538 462522
488157 921835
260787 562895
832040 895045
122285 801011
95836 130036
151816 844855
873384 371247
250906 51412
898962 662070
407205 434616
82000 921694
170954 698390
118949 938499
814738 680227
610672 307926
875001 721747
127870 963960
813669 700539
468133 430102
141915 753923
88700 859456
789305 655879
396516 560806
788182 832400
568961 426561
46268 901106
70435 528978
25104 73551
504172 914633
645442 260680
972995 658077
761038 724745
894328 407982
515395 43661
50346 881854
337755 357392
646181 259597
826581 667084
250505 795536
796536 970417
541848 695300
176099 768474
812435 794614
19828 243912
739751 910303
602198 818466
655819 944829
951445 705762
458622 342767
207819 466275
292952 576203
593009 933741
622811 354860
111856 768036
691098 156668
484088 253812
384881 317758
489797 933571
895414 730264
244517 819227
685675 843565
257805 819962
850449 977728
920463 833178
741419 373069
904499 689811
32114 845888
245467 484851
484578 37742
156482 377957
454568 773703
974101 688219
309699 186998
251992 462941
138030 178602
476984 579778
367768 497728
355382 573682
748899 845725
887373 728914
465041 349798
262741 764395
521142 562612
481298 887820
187528 767696
193125 31324
292574 540253
90462 940379
697708 334026
211750 42384
541276 717667
381033 49786
386716 621848
207228 682778
204210 101289
606226 608330
277536 433692
514467 442591
962881 630143
162883 733331
622699 780622
664057 341015
845826 381505
90522 832066
93373 64822
849207 735629
864087 878570
973800 306121
711562 448393
764839 400056
586946 881423
40332 807889
400452 260395
229630 725140
619937 767263
319115 513241
692184 477730
602342 423813
720374 449606
682648 331263
306132 497193
272650 561946
582739 516399
834110 747287
75064 50403
137364 95057
749082 718426
407228 609777
743368 799876
757943 301996
91395 192094
346710 654639
161234 598989
448404 773749
71121 830269
910498 131330
215255 729649
779948 412764
111381 931817
298714 477993
65107 905713
630450 235298
700661 462454
303517 190275
536036 720620
586194 906670
221665 168417
542365 792500
572216 289019
930845 401687
301766 557339
529714 391998
351451 173879
885878 487559
108392 928749
56750 119808
619261 910840
746619 979862
348654 324321
63664 223828
624329 453926
136494 790364
256905 427532
184348 524108
852014 382105
748646 667267
98928 850712
582674 38726
746073 265879
298759 593646
604080 609389
475562 691205
684741 350755
571025 968394
290333 233708
27535 886277
235780 727592
170969 111544
196720 720112
739609 280767
149047 668493
384391 603077
224093 705048
446275 42368
697733 458152
80553 921588
343385 627195
850213 973317
420456 567990
612590 840327
589833 302296
86903 634508
802886 258179
881993 489235
378021 916347
801121 425218
684428 817812
97123 633866
886343 387661
791583 426748
667642 334142
445901 41179
371890 189020
250279 560735
761910 729040
819811 908038
889938 914600
720818 114016
392469 242446
248783 575827
977194 334477
305015 199619
704242 723139
577362 669584
291440 446700
245602 823975
25250 671909
693620 735585
798070 522339
722175 496451
331580 556660
624406 586100
647797 913786
336098 594639
689505 359569
768841 319432
744913 320159
348879 306916
252714 66354
380025 293010
319215 277730
785475 645647
704896 915147
589734 536100
251496 505122
270517 819689
832782 357026
355743 492054
131975 972951
148744 707297
208580 874212
52266 198698
950839 178709
384646 190104
46016 93741
216575 747314
622959 911785
114969 967014
401890 818160
256573 787845
608573 348056
780173 285450
827426 406116
610485 389479
256129 909838
344864 275952
639087 139454
240774 74902
328358 200420
867149 731361
403038 653655
216404 612826
446627 774460
236089 38536
351471 898188
92712 379597
780004 307524
37736 209468
460719 904941
556476 752253
939000 567311
107268 378191
613205 425654
188762 75840
953832 637810
728048 284306
790756 300588
240379 30147
378254 311564
173137 443105
959024 339299
564005 427462
674709 951023
744081 538053
321771 240699
186160 582106
430998 311086
58726 80450
918842 657983
665046 578605
237931 426033
112547 970565
163938 862711
71587 21604
59473 840810
407636 293291
107756 118610
101459 165662
257232 57660
554598 751591
530299 690818
276540 435166
771310 747030
120874 834173
250938 196148
553039 437068
441128 773719
246016 677885
291934 83507
140314 97722
70807 960362
108697 800887
53925 903080
130807 650961
770723 555790
801124 383906
786346 521154
796268 72079
147230 537822
190989 770135
741017 977233
547939 863906
190354 763155
211462 684696
58188 508713
310074 176070
660977 933688
772204 979341
351097 216026
453091 942930
878070 904802
129531 971429
274980 97013
606857 884139
758842 978594
595380 789007
25073 851804
343958 317308
877923 326360
47536 909684
819763 735812
425249 231999
476836 205629
608406 508902
813648 465429
633478 729602
502576 723677
245121 579287
872404 633990
507095 337579
727536 582586
750906 906826
817885 762514
315240 260101
250520 755930
270479 63033
520502 351802
121515 882084
361377 633136
130245 92452
962366 660471
682460 348249
224831 398096
37973 50996
189038 693244
729146 426880
390533 559281
386078 556270
831389 353255
341118 261417
530976 196699
207463 216021
919861 918278
375410 207594
776591 731270
686351 776932
594595 30805
823532 740759
616420 542022
276243 53775
313091 782157
768107 317055
822124 473352
41193 884213
770718 244411
42267 955285
394158 738997
42093 242260
111162 963447
71075 20935
176208 457689
768322 350952
107895 785332
28735 866732
51528 862961
311067 400328
159587 957748
50251 812590
154766 920287
327215 455287
500533 55295
748648 433032
913511 736830
278654 478891
734222 484022
614744 593060
639536 420924
766861 288204
87366 768752
305032 548142
938326 258533
752135 850433
811398 230156
541182 381871
475274 304900
293053 810362
890230 833300
740006 830952
594915 322338
967371 476193
168810 884854
719893 812084
568066 209827
680952 917215
967352 657332
22960 873494
639995 108459
29330 230589
375671 331724
183270 710447
596898 391457
248282 842533
399459 741280
292276 793090
172291 148599
469953 508542
349991 909170
393199 203529
779131 976490
33742 772214
790307 950166
277840 790902
139314 49254
279803 188098
45108 779360
399536 663543
45723 818359
498092 717913
460242 353437
643478 671736
30334 255453
222087 748587
63660 222434
256558 787122
494485 526080
866655 711052
64121 480351
165821 733311
938294 682082
234941 53091
784441 974406
817606 325406
735929 92490
324654 269379
371517 596205
194909 756855
925771 717199
382046 330594
372288 300414
368183 594371
646512 601284
610182 435699
605072 472450
787227 301104
904962 591799
478243 570274
244186 772380
741154 476931
375634 551251
492544 495109
486248 39893
346373 927917
449059 634483
246324 816157
225469 39259
321230 305178
68620 138623
727080 442538
515016 785337
802361 490568
919794 839671
84811 865303
353202 216220
351259 295532
650449 248133
352187 239929
927047 345667
804981 257097
553695 565728
101343 567079
211911 50361
511621 229594
24929 230409
369082 688066
125505 859737
848962 397605
460669 103220
271434 459404
44283 814773
145630 561681
323934 609202
352705 656268
347289 511019
977292 657874
303320 612584
874332 636905
575213 878996
591620 819705
945638 687526
391467 343957
871794 651415
36980 138075
640603 603828
469515 907033
522500 887096
527512 586889
873359 852366
645545 844359
853389 709874
691802 165447
371568 143469
599049 802888
61816 500645
368499 669598
778950 799436
388972 289191
521856 835427
259570 38318
900585 724544
414258 550580
241585 882557
91378 545100
633836 258922
738671 491349
53784 342064
401401 607355
927229 704877
499538 197263
132337 688536
265097 530590
924613 863838
960982 701139
934756 635755
475617 926994
640261 55869
76111 126357
591550 813485
97267 186127
170997 108924
547104 615123
674004 481734
788930 913270
950292 707069
444303 500529
428259 800324
573998 763910
670666 969295
474368 331957
374111 602852
514648 721081
224328 488867
299505 928757
647569 811675
196160 691081
149771 60897
327074 456585
693741 265642
179088 677360
334661 196514
926716 416887
788845 909669
578926 288409
31729 801956
906357 469501
602133 382188
760357 627105
48256 848366
723566 588665
870023 850723
632676 187997
702941 777544
50844 524071
477267 270584
855251 887880
630004 718653
689151 878825
513115 591512
667553 248276
276165 761217
497781 335094
359138 195550
834984 381031
312753 188019
877124 839941
696955 278054
136924 373288
135918 347529
752086 68682
396175 637770
62188 974209
797242 501891
630579 535198
756509 427315
751293 269339
932687 720315
617761 332294
556760 870175
394265 550945
145913 833433
973192 310788
285481 472444
746757 548846
32314 303888
780257 612940
263147 97924
194377 765496
740583 838887
875811 861248
81375 877832
241892 681562
175102 953877
762115 913459
386936 334842
72390 960619
334922 253651
797805 389946
204738 464198
616454 768927
453378 192081
808936 787123
115418 235933
908617 443444
747638 781940
363921 289809
645027 924503
75790 932111
618846 875754
34197 776807
760074 656141
789817 415254
351309 287398
499366 860681
184995 604267
773981 393172
233960 853495
389569 272774
798200 649190
283945 785841
540693 728279
765259 955600
116380 133866
542137 932818
262280 791903
514445 783405
40147 937001
900101 707581
250469 433544
803366 554760
304393 598655
665718 844566
381849 550229
166676 122811
618325 401538
915360 917470
815537 540510
479156 446025
873378 845120
592819 393150
881253 850850
124068 722612
200278 838148
129391 861677
778449 249742
299576 808572
234509 283851
254412 26104
575201 487931
280871 787955
864536 307137
951432 308101
321005 274883
939916 683444
765161 361896
393457 168649
920402 582825
687040 939337
398016 265324
822180 669322
522044 864587
648659 644421
388360 618730
468695 367393
236758 838750
406142 288434
726752 765607
819195 327079
927201 128516
110655 641288
555995 742933
843607 704443
318182 189924
713392 918747
775260 564988
900122 822695
679736 501639
336974 658331
335485 361332
766121 399456
882501 671514
193617 836098
823745 335975
846358 279486
77269 933104
164072 542788
594681 946130
962130 294211
222083 204438
406206 514495
56254 319266
519727 322572
281154 38982
180008 207218
78623 374943
666468 963966
530579 915745
516089 674425
804806 300244
747928 538677
684682 973207
856069 376750
753284 978568
175839 33313
636566 601537
70728 543078
527906 628203
258600 54634
448217 285233
508033 680110
515775 731243
778832 412307
579872 202986
682355 631623
738223 809190
91024 59902
368904 287566
84594 822060
936315 412784
881771 837111
246810 211237
740615 543202
340625 157100
172589 736649
839611 378291
799838 613919
222077 749279
624179 919981
367660 308890
687356 773807
479350 39010
785902 974023
256770 673942
365856 611057
741306 459071
493819 920113
690198 378544
443331 204347
278049 286153
346877 305933
247500 852360
34770 306997
347167 148632
432952 782642
71159 618671
127461 834586
658006 493370
468219 781851
752764 268839
881065 634501
460067 102003
479271 761229
93074 288428
375543 737865
180352 717332
327965 373871
74954 38271
24737 873660
731358 970601
128360 127055
585102 518911
746796 906981
156845 771520
631298 771151
945571 349662
218888 235878
512872 650770
582378 833977
214872 747464
710010 153005
37515 930289
243082 755244
294246 650698
491138 380733
768056 314348
754808 537571
894976 407744
301496 641012
747388 844952
57284 924015
152147 452738
373840 581403
696307 188922
760126 979701
768328 784727
372543 255590
593898 617236
529876 562035
251451 271196
604599 524643
644520 777878
287979 561185
798018 977868
370562 716399
599072 528115
566261 975035
244453 771143
830733 946061
228787 679507
174756 884601
244491 605596
870543 672009
797194 750638
748220 770162
768477 33965
190032 950682
39211 140007
218389 489456
299529 541779
257306 190634
735173 265314
527593 936291
915966 137242
653786 705582
656377 703657
400983 767529
520264 728053
519204 346537
725904 512611
107850 644554
335181 547167
841319 645796
685339 383450
651977 656639
678172 971067
58123 891993
677252 943207
121251 756846
918817 591160
907486 435158
587386 257326
184288 601591
605361 259097
165014 700741
637128 764645
54260 813081
143447 710558
334519 598339
60261 916777
755980 712561
499685 521823
124268 584312
373601 206158
305774 563006
438795 544997
794272 765548
913247 674401
21954 399017
745330 714039
222897 703078
60983 917797
835730 735066
386498 330557
853293 686320
619147 904790
338558 334409
373104 687225
87337 882475
426987 790940
308722 870368
832740 653796
931959 453228
213246 54588
294845 156136
281667 251376
239973 494490
334765 282166
759212 980303
380201 74243
649117 970999
211758 45448
349257 146309
361245 306014
557635 745012
691124 219677
917255 468372
288478 452221
603931 898398
518078 308026
949534 165699
126150 954348
867124 366995
874107 670044
367171 553593
646082 77929
546554 827905
585894 473519
265284 58047
557347 484324
228816 284093
762437 629657
685946 939631
229087 214004
251453 422970
836575 835461
782934 744204
544274 404914
688982 349291
913152 671804
873687 327427
281613 60101
697351 653242
645271 734772
645931 414097
604463 772139
161374 741943
202897 758924
879849 301317
817364 839715
762167 354028
610818 426608
424093 233926
812049 676202
336424 282228
520757 163451
729697 450035
45992 828273
778544 269277
630352 797948
466077 863975
170012 144278
927572 696963
800241 968213
121816 830394
132462 97648
697447 264813
874955 729748
635290 579624
275858 109175
50860 828066
688194 361996
649091 71634
767895 468225
700614 912912
106185 565964
90893 551444
252027 211613
92725 898333
38585 821077
473261 105463
44407 35328
799017 971498
29425 663288
181408 418987
664452 616790
212259 690380
309599 588143
327395 763664
764754 852175
759895 723316
376694 751946
38603 837354
580300 598990
589083 352233
598522 384401
227159 736827
182364 749643
591800 347257
442336 32535
933156 887245
776254 745461
575055 307327
611883 21811
370710 405891
294063 292160
607298 417085
134897 51068
52376 197240
37422 922952
430355 569161
42111 964725
770451 571947
456196 617103
813604 678560
825591 475771
695855 292352
460655 258807
728637 238483
32141 968088
366882 626857
235032 732400
733370 761463
207984 457392
537997 627458
696159 592489
814134 909980
685495 341864
185819 634673
646031 937638
848373 737130
337527 322737
387854 500382
480676 33545
310479 401865
665927 421943
914006 135181
533415 513948
766433 243435
691709 725281
185471 769586
172915 884727
166534 732413
172219 651676
219878 204732
885052 675283
272448 483970
532915 378325
230270 283675
258664 450312
232710 299421
818817 435377
934272 438062
346045 750565
642164 845634
373045 307028
251569 811343
498446 860839
306867 584884
494160 665590
978341 329236
835381 627345
221905 748306
872737 671521
722742 117136
41943 324250
824084 403067
599738 353353
243708 73875
329574 636107
490299 704939
388841 620268
222797 749065
455860 370152
403387 550886
874219 905489
744398 841336
530854 852970
253260 697381
64892 381789
255781 764706
290777 569692
354264 621003
542167 266467
55170 815448
53249 855483
890114 701921
303406 275872
230820 665613
696844 132545
828774 680953
697155 661513
409834 517359
497894 842796
761190 976813
322279 173446
356124 957321
567995 727820
64537 919469
413130 453118
427791 248878
495188 915431
56858 414797
75588 165850
518842 735114
126221 951443
697803 660244
874341 79438
329119 332253
754732 393407
620542 746726
728900 416319
515062 774257
305382 826892
850885 80747
24421 834931
43908 428967
354787 944949
655948 62228
101798 72420
907372 675380
556344 742030
210235 804144
65274 118810
287172 551798
126453 960228
253361 64926
265330 527143
710460 620321
652819 666035
146770 658015
943182 628050
486940 707935
29902 965931
28361 488570
810892 791292
585626 661958
957449 640457
535509 344208
590901 350211
898658 695143
129501 854795
270248 763343
193131 58121
248394 539320
676999 773328
715786 812590
442257 500065
623791 174620
29991 284905
25904 853282
616033 900006
657250 222693
367850 864933
101893 874297
150572 827071
868835 636543
792261 298455
954288 629965
334206 147982
589841 27623
80866 27490
707497 970159
279660 478396
806413 789409
532923 851266
901027 822596
733622 556333
573280 664935
721953 475317
873892 321768
765005 399574
744014 280401
439787 775240
161203 768631
310658 166840
443419 952905
63914 383954
892200 737330
161133 196840
430159 372642
284264 120895
129580 592912
466850 593943
609311 276004
255926 767421
585710 954965
773162 152676
474471 658605
808933 312783
324531 871689
877435 854270
107557 783870
310957 603985
911519 683579
435279 826139
745304 816976
849102 948043
686334 909315
110103 605669
221856 214586
201103 717839
33408 219208
657286 416973
148659 343105
65448 914583
395633 239546
338365 335843
562344 613867
369257 875771
41134 535414
331880 327535
74249 302905
654163 974277
198395 231676
589733 754154
456449 503844
437192 51251
399786 222057
324223 262560
829443 668799
573025 226316
739478 536255
276461 190426
467546 44526
94559 561852
957215 700400
876351 902549
33071 48921
612420 837325
672221 924772
276762 792155
26361 531919
199367 776817
150302 364501
427000 907267
563676 980112
378218 174266
797583 842160
140254 468525
723880 375260
441594 313029
261484 204239
44813 800943
524354 404216
309144 161873
372797 332819
880394 384815
398210 617333
471618 739659
816083 699180
554007 927139
81665 47261
753552 809343
153827 919573
361436 621634
210851 589494
124330 656536
439264 212034
726508 526269
681604 972334
647121 263878
124172 842611
209053 712563
217313 176615
721830 477889
503632 412267
679765 584170
195553 884056
781237 387589
130766 620586
336968 579206
775582 978018
306148 527341
351203 625063
622514 403669
832028 275265
637134 538871
169610 739582
134102 566488
440616 543588
339318 334036
892173 839352
350073 313876
233744 283373
137855 534389
746615 867305
732223 858134
499896 863564
800736 306100
239587 45219
787205 915625
132630 665448
362342 941763
819358 77739
517634 327342
743048 670032
710773 374272
616503 804828
620236 433869
699457 179606
819208 772223
923314 580087
935867 909945
606452 961309
604922 533265
363011 637282
112722 566047
161134 609930
368882 660007
809752 572996
851039 686160
730290 283246
683126 339202
617306 798794
736975 882559
189641 219706
751113 979458
507891 684033
669804 670193
648694 910943
793748 964319
783910 717984
345961 180970
246991 843816
626509 368512
217342 394297
200220 852558
810308 744761
669701 471829
977698 331996
419682 600122
732563 558507
642006 55978
973049 302654
235764 853717
369977 729634
221039 204881
94968 532996
325426 151095
925568 418815
69982 66237
177422 522410
731737 834907
966552 357269
489525 528143
945816 342782
587137 288390
258054 446465
210081 457399
567813 652961
755054 533190
877236 630749
293807 651465
371774 974272
47442 923510
928049 885142
567829 288707
763179 411057
793184 963062
91282 558831
156911 492843
768228 311942
139836 543268
361270 497118
831785 836020
201131 753195
136859 156274
136425 600667
511853 683577
817844 403588
590152 419202
325247 177283
232180 718666
808525 787816
575215 442593
82838 86359
80325 527506
701599 378821
125253 802986
628418 796061
185101 689718
916821 674034
592556 396382
22039 460883
308578 510656
267159 797615
250097 842511
614794 854198
339897 930690
87364 935441
350745 298176
483874 449641
733654 810323
275411 561560
43013 858284
489845 704014
385352 611423
932128 672364
246709 280557
366720 856945
669477 958093
655883 946098
452655 591909
866682 890493
208232 28021
923000 676494
616539 258864
800884 479834
297895 550769
616356 452132
919838 334788
931439 392722
363672 499114
940665 564059
131197 855349
617074 261642
497594 283208
760454 283633
29201 961072
355202 389661
322004 541781
486785 341648
790078 265695
391604 262377
824699 426899
350539 728787
820427 405378
89330 830016
723239 871526
693043 334775
233460 726657
556739 617839
964997 414729
628731 684674
690377 624291
483270 39197
758972 594401
257478 805968
366510 288179
555194 249998
739432 898697
821856 78126
359199 897460
372419 291230
184827 457300
52512 141889
274300 193315
765170 244937
641879 965920
621745 772750
307429 504398
354124 187082
599652 428622
242558 528981
611284 582825
81259 867970
631164 746620
788973 449860
535153 557302
138353 449185
398770 619258
684053 362620
39074 177799
389005 283646
114149 968225
247603 843354
782927 912177
137232 829432
640314 457029
139065 485207
979990 503630
724859 792868
107092 899457
84607 943504
577486 765933
598611 670144
368669 978157
364024 587938
691536 403743
106281 346125
321734 467377
198284 461501
853400 397845
115069 704895
102922 221248
85258 864569
337002 284847
540443 372298
206572 876905
884906 831541
410930 603589
826633 361791
732162 559635
973885 284384
351981 236355
387883 239898
341382 853139
824894 633742
166394 458275
729884 700052
638388 115412
863626 730466
310497 174501
739831 785175
470592 567963
955344 346326
331711 761037
79327 526231
378825 452203
865403 308665
591243 756861
679795 498980
563155 427741
853503 79596
474305 334020
306153 192232
98332 852329
370987 582883
572616 946229
682596 941125
91096 879142
756414 854936
878303 365373
279287 320651
586845 322224
552415 428436
618870 474437
748687 786784
67588 838756
776062 739028
349054 507670
631484 736548
617205 897974
640547 808592
729023 426162
756702 859652
455784 370455
329908 929408
529625 401312
935087 431537
217068 76251
355168 331098
560377 885809
342462 278643
148957 752077
213206 726525
288602 657302
338140 859469
630818 537799
453676 918402
208564 822408
728290 444893
933362 292160
102953 577321
438236 373502
883326 658382
39217 832590
51695 296572
240979 251256
129520 151480
41639 910430
859135 645764
510170 67940
700806 839048
869509 634323
110944 886126
444443 662630
39779 959832
461638 168846
944450 613761
627296 793563
755429 722638
751977 622431
800122 651992
463185 368341
367516 501923
869544 671652
502672 88768
475797 566806
93194 884530
542743 626128
731921 915436
746517 653108
704087 464581
709705 517023
273134 857847
392934 177818
890654 914913
66306 59670
896805 927004
923255 466040
384246 725379
915537 411905
741710 458752
582645 649350
889161 688448
533839 770610
312928 262620
85985 821427
497970 862610
205449 71067
451068 628744
948514 308576
784828 931823
514191 590572
256673 849236
962274 664976
880807 849683
768734 310030
154229 167314
53744 886396
445853 39781
309685 592495
815680 324068
211641 57560
943045 716726
244663 765457
108716 785775
243542 440835
410273 47511
652676 830682
253934 24585
129896 794601
63392 824088
496863 77020
506496 667654
221139 853048
54083 345177
198289 573756
252778 508041
455658 629054
47917 811683
595739 816463
467149 405810
157540 758727
62683 507559
860109 643981
700154 634080
770860 802158
673273 954214
177875 449346
243896 261869
291117 549951
24043 869868
228262 682734
58443 400178
872008 385776
801875 653453
145212 759074
468239 371015
293355 264629
696091 600484
345876 463872
692463 669126
713798 861708
669675 936312
465926 768685
836949 702151
31929 960372
151878 916654
92281 823876
209569 709066
542066 600977
261425 831240
323073 554673
468311 372770
90973 879857
78198 273726
358293 915928
691762 398899
589378 755129
221971 700323
49465 970694
694941 311900
203056 679451
191139 760633
842318 484073
591665 297797
223525 699881
300634 252914
348302 548167
273344 66279
390839 235893
767375 466378
343343 517248
401584 239446
592594 396851
324340 542898
720448 227399
260619 513181
175863 775910
865681 890294
338169 256026
960949 338205
175415 427649
96571 636770
455821 98247
556193 741476
839258 87597
643008 273010
273025 726680
743223 463004
713092 448347
678937 448426
977647 408438
72378 545493
484022 699549
750635 306555
395596 272330
29465 820232
852740 324432
318411 287671
741691 681341
605588 271478
139699 755236
488474 457718
477174 574988
256831 802310
937668 727187
55409 448194
640598 601998
364361 258970
262735 517586
350936 656414
269885 720880
536366 936483
882824 840837
289058 234790
25737 805456
697398 313937
812266 319185
192302 694041
705481 838324
88649 870285
348929 475896
782955 632247
123157 139578
637556 545314
844589 450289
45213 532796
876279 373181
931382 402770
765023 399604
46541 152088
753577 787478
854506 98619
818933 806317
341312 284120
977121 294249
133230 47060
256265 497280
339080 632305
650144 316572
787576 655595
844255 661606
929840 885772
161807 541915
369061 497995
228037 754282
320115 276723
722143 478214
780777 879130
251963 810472
285505 576622
116765 915320
58846 864290
234186 826939
826202 80281
638060 684194
746567 785990
52364 197735
743836 92781
677128 541602
372797 751051
262202 820419
692150 534501
218173 753259
222272 586875
219797 86392
261633 457951
125035 583440
481191 874712
273696 740286
836415 799502
320548 301268
604276 466981
188492 771091
112938 708846
184720 544229
285105 562612
642284 602493
36945 658909
404779 236021
53208 974855
806886 518835
220467 742508
58342 318554
443320 609246
787512 92240
741471 747695
242244 784743
658347 595016
908920 714607
53423 317202
467607 742662
547709 353428
72052 23877
330308 200231
691185 331929
666480 575297
492216 45009
465943 105266
54459 311178
759254 683473
946758 727627
292323 86652
830402 433594
223372 697220
396185 427934
243015 583177
887569 842285
295872 279071
786551 732704
305875 297776
201633 757998
548703 350650
803409 391270
312386 564263
681100 582209
310627 307710
634341 761514
264856 524216
361985 626565
459349 626585
312531 471094
84651 293904
64636 529873
128341 863322
793896 701970
106286 801489
493348 380358
63566 960067
116301 251837
920856 452066
163460 861967
617322 305752
224090 687852
889877 631096
580524 903968
234244 660001
687329 554684
907302 467631
604071 49520
335131 329706
526083 760955
695382 304483
883292 831562
177958 953742
470723 575693
92573 58491
149978 685367
690269 347045
524661 242292
885256 728909
846805 685402
776010 737877
113882 135271
724283 610316
132559 404658
26645 239349
166957 877425
248163 465566
891560 915380
237441 646016
373732 297648
742224 476445
348425 167101
434404 372620
926904 721282
586616 946908
247088 275096
291983 572490
382118 738200
165737 215200
882824 838965
412708 612861
247111 755179
769979 345389
738258 535336
541141 724496
783039 522348
679031 346187
937565 718406
111668 789260
103104 842863
696618 663550
250638 705294
799115 786066
372260 913867
90373 850460
39898 30925
526385 857408
192240 182964
897124 672534
436844 66830
837265 399685
777963 310853
438672 76766
607318 273679
808089 372952
894922 664130
523119 725295
920353 832223
101587 30440
280321 656406
367272 287947
685776 686693
110456 129179
689760 540007
721252 869808
463481 613174
280316 190729
114176 90255
382918 955661
546625 67933
716631 920620
435571 945961
209770 832778
530019 203434
747274 136868
553349 745000
498393 862012
233360 57416
486510 218828
784501 719647
517241 324534
111483 641359
128954 965338
882618 302714
905040 671649
40076 863562
127525 659659
598884 805571
848279 480983
360332 623988
821758 906306
70424 528306
691034 975127
232127 66102
834411 398646
114052 135326
935022 725552
803707 31861
516721 730468
931683 384830
267066 540749
278688 444818
878584 363826
587303 36116
726475 919716
296992 802009
92957 638291
811169 436437
219833 696404
241582 497618
948849 709004
368656 730273
821819 506341
763283 763376
130053 621035
63303 918639
558046 500294
380149 232300
663330 329926
822078 687510
776081 485989
429529 905527
357203 550162
725453 489432
352331 285262
513666 733098
219153 34279
183092 635047
77944 903775
926582 736032
361453 180467
238600 446535
75112 74623
613115 199808
52326 521537
754233 267491
148492 695167
719407 419981
598432 417040
283786 43432
617797 22988
173629 735624
536425 627940
715050 448419
783613 730197
88488 485168
336609 637222
801953 229992
704230 812466
809781 430336
950520 607141
55046 472435
646277 666465
267040 487284
240961 652991
292205 232394
732982 755183
89795 379375
519193 302025
738226 900000
124253 864817
102877 340324
140854 466205
525399 756476
160833 617800
161894 456330
919012 655317
105566 814161
27414 70999
309093 593760
839315 400567
429541 786992
220609 583902
565664 53664
777585 560107
598712 612420
343284 883469
150394 911428
248468 817815
96726 856922
729858 449082
775613 603736
596260 404225
820521 316287
558548 259487
63534 495258
669222 829120
61959 312152
461000 550248
197720 43965
294699 587178
886566 633635
29720 448524
319533 251192
319460 528004
416087 665672
764540 834566
837236 424634
332665 592690
22903 240339
315682 563324
637847 458150
449760 335962
391758 829207
488896 703432
331963 175646
210715 837597
155005 670510
978208 371158
179323 466381
633871 480438
363906 135476
595045 287361
130554 975182
956247 418152
471652 41905
747973 637343
280737 476934
315736 522740
959197 698084
56724 887166
822853 667075
77680 933195
43033 137406
828130 693479
237644 725812
50780 534620
326628 147212
507016 569390
296224 796266
118336 58343
44428 892691
851154 667411
50623 87949
470799 782848
495661 498370
123588 801013
785289 616424
631706 719599
54016 197725
784917 923270
223102 161785
32177 827543
724173 876469
631522 755296
317988 264021
27287 865263
772604 334203
581849 828359
818196 366971
533388 776227
252139 511331
627113 863824
747215 783965
706813 915947
672368 865561
515219 433625
823164 322617
744646 463330
138360 346609
918580 853081
106801 782094
363414 258136
241270 495727
62179 900573
858202 710678
128935 622245
92886 154427
782388 413336
259311 551157
308560 402409
855715 321939
918947 844059
897299 696277
57449 517590
764819 561361
718145 528329
28039 128435
660123 223570
208541 704894
536389 694491
216984 610243
918146 917853
34224 768838
40504 967742
761621 356004
908868 680343
303971 425919
639653 940043
248156 440337
95553 638951
155718 86826
406388 562915
243222 579138
693621 483037
725642 516597
609516 793633
242718 290690
902836 737754
588206 205302
973541 698287
170533 764618
276129 315224
694915 521932
682609 558452
475968 909051
388075 310022
874807 863859
136035 834598
245142 818323
140242 566426
690885 356812
918018 294956
859225 889718
91882 121078
608172 962925
40837 820641
211254 215055
334205 546341
229978 458525
314411 588492
109597 645993
219335 693575
491446 782220
616901 395065
533637 388424
939028 699926
69480 65398
95386 887095
275782 562522
290006 416227
915066 624403
616550 308595
823907 337015
476496 273071
391529 343109
120773 632348
58984 974489
620102 340385
882740 814673
245959 817041
62862 77694
587620 277293
760211 594194
319535 276666
213963 53051
845154 272159
898373 403507
359510 495596
317252 928353
951433 415340
630947 359566
377611 605146
542160 602247
298339 558397
31805 846187
800197 713512
739708 86602
571625 279206
609046 407995
49087 291582
479584 372147
785776 380103
932852 404597
333699 759726
296751 585481
870093 382563
436836 674595
39303 888057
658955 919739
298954 817475
979372 415834
247994 532334
230458 749046
353561 808067
755067 640763
883186 835765
775271 441146
846954 281971
424437 372049
69579 638655
468785 767574
669997 876212
212251 189264
73322 303544
322018 766938
952194 721197
661369 340990
41059 830333
93564 196932
440064 43133
93695 350484
884853 913344
684904 358030
701659 630858
195572 68590
180160 104535
160492 615067
650412 262549
895483 403748
52282 198069
29367 813114
353779 226321
204308 678710
822386 896523
85590 872523
110199 385390
375305 195275
621725 251241
177298 696831
210989 837140
723853 760866
773422 978724
262080 205106
889005 841162
305620 546977
810727 454449
246784 535638
637641 214897
356032 139524
803443 424734
719481 429541
318492 615641
366664 653392
939261 565781
955487 720824
803877 375238
918300 852161
350605 337179
120883 699117
466975 659515
37798 267864
638365 275700
897165 626744
121162 837215
76041 30166
967103 626411
626974 409076
829565 891913
907897 684998
73639 123347
570989 849828
448405 28486
439835 673802
433905 564741
468011 590967
741201 84905
817503 673199
450481 620651
305882 186772
206343 741927
814288 434841
67886 831208
875332 708617
170452 699216
913761 731065
537252 291328
818701 652569
629410 557970
872174 486748
55232 136566
88492 624583
612669 489246
453988 620636
750808 838903
193814 117292
548388 623739
876891 819112
948240 682350
713992 448449
531824 308201
305881 544665
384540 932814
68549 949143
77811 121234
39688 533796
760842 534602
798166 260445
340676 585698
519526 867133
874706 376687
63680 903068
598672 411655
144878 91788
222499 749013
108107 459978
614403 476542
224943 205715
460627 303498
443934 256162
49659 961334
41642 827684
344140 272268
819967 761337
690195 712560
964868 489942
944692 696985
186843 67243
511011 736465
263364 834245
803409 515797
663574 788481
865848 906891
640103 549520
859068 645501
353621 222306
922260 738918
36793 381933
34781 873293
838636 890778
232708 58582
201045 679560
85168 880120
746926 668640
261308 137092
113737 393581
650173 843241
103615 965214
370784 310289
332980 514305
406223 292514
372755 304853
721066 523569
144009 519117
294089 786583
956370 609953
239531 892293
231835 35770
758598 746309
401148 647787
88814 515195
55772 966135
23520 918130
648368 911872
130376 945972
882972 379737
212880 254885
835360 376847
137126 451799
318000 267045
746670 649983
368776 945385
104400 569615
829408 443158
529292 766090
918047 851208
58059 519503
442496 396688
244867 459890
76093 275841
951024 420408
606580 287279
626236 770178
665113 576849
414313 216107
132837 720269
53906 438352
406065 236643
92153 882779
31103 302992
968059 663583
622685 172407
499744 70148
514634 777447
625747 743264
200440 840572
756500 567709
213669 701791
325759 863558
345185 343243
183264 227741
423366 673000
512920 44218
791086 761602
480800 185583
383810 740276
357240 214946
321984 643297
618340 770792
752622 534802
613360 771862
523853 527167
201966 623142
876411 673601
579611 310047
637842 561414
194467 756840
251567 743962
292867 89913
228286 283067
724185 490798
562576 432048
61251 472390
465647 603284
781213 620296
167267 873406
366486 259103
62037 519949
215492 458452
813752 441154
970902 683418
593079 595050
596565 483506
207787 688486
853477 938964
436605 613879
709171 448452
572478 42290
172650 445470
205229 197915
343461 197469
614170 305435
843194 685296
60203 486556
234898 419176
190863 73078
161313 883959
411985 927891
495109 749581
724496 491054
157043 747692
662433 612901
967693 648969
786998 918970
180991 715602
370690 332775
357232 227431
947096 722412
245021 48740
222159 201973
737471 267147
249690 196889
545310 293201
35425 951108
34185 768063
624135 283936
756558 622313
589246 425489
27046 957749
222463 235603
826603 895054
232437 734987
105054 114142
678547 774231
121515 803108
26733 232401
653453 699322
154851 375700
763336 968273
88055 557612
142207 161024
212710 458106
863125 631170
749077 828105
90012 264274
829282 615006
651629 604646
617132 611472
961767 703651
786114 724925
306903 184357
346116 619219
866072 729330
572692 226358
819006 402732
902505 365509
89730 530838
425851 435070
56733 131251
638406 113506
729138 566201
371632 272381
51597 871565
592855 710805
783269 895324
66649 583361
822842 904485
207617 649487
538007 744945
740025 576624
343962 293078
527882 547553
65386 243081
779461 748744
377120 693750
340645 262535
125700 128951
467196 768514
250934 429662
615862 397212
882483 836446
709162 562414
152737 845521
768566 833134
199570 206890
284514 190870
466053 744920
398375 468719
440121 324426
770556 296666
260102 222680
830283 400263
469561 741448
655600 627919
42430 683318
762304 459861
766529 463206
455617 340252
171455 189734
824671 692089
211019 718023
353895 579641
300570 228921
57755 405114
437116 532763
702012 263745
497435 374155
217711 488441
608715 772487
742404 265745
431986 298333
228643 293102
167812 699906
318485 771486
749381 538433
338212 262587
691290 472406
29957 276282
420425 443203
631575 574239
234156 903974
896152 409851
944737 735884
298778 187275
355538 942742
591123 624524
617295 779547
891298 409005
573341 850507
319124 561789
852223 652349
442514 192841
768533 369597
646426 415153
398554 185577
247791 279253
748446 845905
493046 346642
293009 574264
434675 902194
85842 84950
347307 471143
353929 266698
895115 732058
929597 705107
729685 323353
740972 710322
550811 950632
585785 907061
226644 861129
606558 421613
873707 732423
303484 283481
34540 678557
519471 722588
97815 149740
237635 448202
827722 398493
128662 93943
607711 603488
925219 721854
338750 285082
619201 313583
905339 423420
598773 764560
643470 771839
730164 755507
188310 767228
38981 886134
781132 923311
177167 219208
249324 841180
393550 610415
662793 932670
294265 104475
345921 552588
306429 244228
789524 145350
889711 731917
459895 783167
446698 43007
765318 959120
934036 680373
290184 568271
518190 726569
45405 241008
726592 794885
534457 693895
684715 773555
286202 797438
99607 464795
493416 72107
670392 845126
127236 962330
184225 731293
89097 844949
548266 67185
283075 573745
708378 390953
349583 939851
837422 671954
128488 969122
58990 118649
606880 901325
224945 475706
800644 294355
225622 854834
370147 716734
516587 694593
844322 370389
727041 907411
640591 259158
739174 881195
914086 688063
83744 79954
383058 494171
475241 41506
273854 685467
220218 215961
728635 445468
934155 441350
634751 151144
520056 725475
852605 319419
822931 800961
36604 352570
520581 167762
790246 390500
732256 905318
25324 32925
835663 380128
152161 918739
615353 870378
488873 407258
649678 926586
223169 890921
606891 771537
488519 876832
303548 556802
141923 375543
62760 846178
811974 577965
564206 871926
418177 523593
57406 837111
176343 733282
456934 916646
749752 868716
476964 734445
38015 804242
131028 588563
251628 53696
330465 194268
70643 543234
346004 271094
98660 160110
770857 804556
767389 655809
133920 790892
63982 851964
687212 675332
347511 626489
606888 606761
647404 208753
783171 285438
891490 728853
88912 843416
626441 370184
850741 887515
369670 136325
693910 318902
804364 787439
838140 619097
114730 936237
564605 54881
549278 43966
422768 657050
267190 679708
600294 447095
149265 382776
834822 699511
121868 831302
895286 697757
555885 742757
668619 575464
54260 833027
773740 736193
272431 194388
188058 574704
598945 398170
605567 960567
693489 431030
454704 919423
683294 337128
349615 319141
960894 348884
199197 720242
74234 128350
722681 612302
130797 853653
872252 866526
394288 353515
890867 599915
338096 596039
20162 804873
703288 814258
307919 181473
221776 916232
68423 844244
793734 677038
369269 333607
619533 435780
740724 879110
281335 654157
247938 753955
715903 772617
663950 970815
183464 709660
389505 278110
796502 653282
868918 691421
281588 40620
856953 364961
725566 508902
581513 746052
348840 322604
170348 541193
35915 806102
907194 686256
727365 436960
767842 366379
20879 857061
885342 662460
386247 300375
624847 794730
751082 540207
817269 765753
601913 267802
570951 226141
895896 697065
827033 501965
142477 803501
522504 894920
669199 545318
344889 275826
369020 403420
67137 308753
673740 534993
518906 925537
249099 812917
740638 790001
343536 552814
339269 335247
454053 594780
557255 896303
406348 288406
299462 644613
693349 324945
182332 712678
213605 688718
767617 909380
360641 931309
397234 266441
251128 274407
231380 282567
491641 751320
324613 170464
389831 501895
682737 344678
752723 304884
344358 154404
939118 908230
166603 879473
133329 833642
151725 685764
206464 838518
630812 737421
926170 677718
357434 852550
598375 955469
192482 84671
361994 655048
77581 118632
620756 314624
778039 489812
689262 974484
330880 633494
919616 672280
399669 660303
214367 696969
206341 696785
636636 569102
147342 558468
245885 472137
437931 777187
897984 391812
616542 778769
196952 841442
280921 711614
728189 807238
798184 715113
290047 565799
386315 549865
467122 105298
870111 915036
720715 473215
404191 747693
536941 470148
695020 740811
357409 591560
31872 677642
623726 247105
593015 259130
853287 651379
31494 237915
660533 800305
400153 224161
405995 285014
408196 289812
34953 957985
619990 354237
148138 175222
147228 694779
380072 67612
950192 609630
122311 587076
235466 252634
535009 183483
631643 686415
597609 440197
358332 243059
105245 780485
589415 288739
724485 924730
168579 740875
746856 632862
578360 192578
414101 909348
155896 537789
934037 615012
91300 880576
321774 640687
540088 758873
307855 798729
533789 927538
723009 811061
244337 449243
892029 622148
635231 542175
457819 632365
820253 640873
677352 684058
51038 507042
331771 649735
830739 733144
390609 596362
903304 411043
922560 422897
508948 67936
756065 910737
182452 770308
923138 584076
461668 551960
957666 279931
346099 512775
38992 810859
102983 966781
358497 369589
571796 603583
49401 955749
170555 732526
706341 581634
90399 119870
421031 493764
53763 813008
833805 685139
203625 715579
638388 141058
777959 299648
52570 299094
608979 387500
226359 776490
325932 602119
894131 631000
919662 856513
909442 738233
413192 297363
137999 807538
754670 759450
318296 603286
215518 582908
761557 430106
710128 771199
785207 777027
598936 391188
770103 397068
921997 423332
102449 216509
750761 848786
689191 373069
21273 239052
349504 582025
158790 598489
59741 496232
761741 251882
863735 365911
623255 930126
718917 867177
752290 813160
325802 174881
621594 722194
206098 465446
978240 614038
465487 584993
665954 699803
216112 696678
236008 687304
518633 765071
496914 410002
79916 42892
616139 771202
59131 892674
197122 840707
591970 256411
174121 734910
24179 845613
897977 928324
850681 321201
882829 840000
117278 805335
718119 891265
400530 37655
828792 683361
780188 923582
379339 278956
555904 258696
282671 747916
978842 177085
97496 203422
367678 258024
94533 496583
42134 272008
39938 657547
323461 198697
197082 188584
83284 294115
94450 574008
58039 47476
541943 359337
869340 70330
255307 508176
228941 254396
567194 649606
250025 248750
852302 312572
201509 463435
242360 488439
60941 841477
401780 646159
650180 314711
552523 256868
119468 969832
24654 848926
273482 561739
331226 606461
663025 658948
330280 558429
161470 859682
340871 873134
742195 467778
141563 692530
520347 893562
435546 67745
38939 799622
296690 184321
627493 684453
649064 263240
399125 238283
754199 757960
243885 424880
30820 387979
302818 558067
124642 794237
907321 428719
385589 299880
700073 369237
414845 897425
696904 575805
930310 913459
477056 782502
817413 586244
523262 862161
628660 366242
228148 257493
653244 801801
271897 745853
377101 88596
301517 282153
399407 310675
709797 465749
480998 338493
38937 422560
177984 725110
458249 100413
231353 750774
268025 39109
86463 821952
557783 816137
235045 409023
585269 903821
719809 615802
99046 975605
59925 245849
580690 427919
287889 188359
729811 726579
34657 178004
128589 827514
966672 672676
292529 783087
323862 317317
827980 411097
386651 308336
200119 471888
151249 358802
685656 526823
185645 757910
691628 720219
25813 860242
589837 420940
949039 421283
144221 550616
751167 538047
35946 977187
245058 825997
308366 275124
670797 474525
786263 781085
369848 852430
242680 903164
454321 918460
977486 427471
310221 870365
414904 214292
162297 36994
413310 779164
396222 239736
878060 930136
724804 593497
507124 777605
863332 880376
439850 595760
148365 879993
693418 389139
385906 27196
726989 886149
147947 162752
729494 451263
424112 371859
612321 684804
243306 403871
419224 300548
322751 561367
118073 522279
921673 682255
53014 870343
633125 339409
167551 87072
486561 36858
33740 258728
410332 480731
656300 975440
633107 456674
304534 490560
225267 255168
33834 679842
477550 925389
375931 882467
238086 523474
220131 752531
690096 566862
761878 644647
695738 665904
864166 660021
58421 503526
380814 281815
222633 33522
284476 575296
647249 259115
622498 727827
941156 373499
114827 597503
148540 917135
764369 747539
628437 170965
487342 596811
431127 311925
279051 276828
481921 102507
383896 934688
465530 600051
580935 963319
70130 547063
151121 909775
799398 304526
178891 520223
799882 549576
539999 184498
325397 378900
778768 547396
842575 835480
792505 675129
105429 779540
114518 395991
726915 835002
55213 929241
633461 759694
813003 532546
174436 773337
462571 907479
639529 461961
787742 410880
264877 202942
112129 556616
623171 696861
404960 235222
362959 619800
378072 818099
929972 411533
151137 704987
581752 428531
602083 526976
57888 922743
466417 71038
948610 721416
701131 913130
291095 259939
341569 628486
836644 742239
73772 73103
487924 250193
95080 974029
446173 662176
576732 921835
707500 557562
802543 53530
913932 686913
695036 614785
704549 449452
649700 257929
547736 185556
35822 873031
473570 575044
38767 828260
743171 545129
285135 418828
257668 417358
555412 744585
495672 919077
42099 140375
201919 628227
261744 448312
123286 871246
816509 589930
943778 157012
561290 376107
557667 868716
754704 144226
863131 693415
564729 302973
543254 475515
367382 468589
130450 855683
572586 275961
517778 894290
741548 371201
198802 841262
119966 241777
723497 492325
819025 618068
959729 642943
445933 20245
579970 546005
818163 325809
360959 351716
691607 669719
528488 290967
57646 131121
117943 588516
49904 878138
765924 560567
622158 599368
99663 900336
910079 721230
273384 63170
246109 249202
39622 681371
341038 522688
324206 380501
244401 421401
866107 325060
676006 816465
303941 646584
835550 616653
67021 377928
75495 860666
258110 453885
44323 856255
550006 712233
382465 234353
624436 915512
549830 284840
679050 554328
717351 865038
748463 774084
177169 517719
533358 774521
435715 532268
448565 612581
603138 684470
872130 687750
532706 589390
361463 346981
427761 372513
798184 73817
245518 420397
535906 744320
430632 429313
570409 214325
124285 793242
829348 476516
900188 712179
852840 396737
459865 327029
209555 624248
377088 624298
459509 625067
329737 437711
50501 131443
338739 258200
660890 615159
346236 621771
297727 801142
574462 958916
857365 648822
231299 496340
293051 157563
443654 546178
719310 691432
744428 831610
769298 635467
474185 878105
112911 879045
207551 699512
771163 655956
616335 204595
815230 466922
24819 821726
165361 759894
132323 828778
58520 421544
642969 96578
34124 955515
111338 788683
380961 555461
300032 411350
878551 838916
62710 121398
950663 720941
97715 331722
470028 197646
627996 770360
244385 870134
245574 438566
370388 913570
327363 616265
49854 895168
31486 824147
433515 937273
589668 632912
730002 446944
36539 109803
406951 236683
787926 411584
768171 749593
610765 293294
321010 643031
752678 610610
698954 188572
142295 167470
707724 916394
471190 929473
364842 729844
297514 646102
329221 260141
165470 863810
313593 257792
269710 196262
203460 210000
303923 227658
194070 772722
211058 871258
528116 562022
779770 924875
361623 344282
723892 824802
712182 813458
585092 37259
714877 919096
359227 933083
261870 492671
230675 585511
650410 701843
247537 408709
649952 821520
343079 261316
547664 796040
827735 362063
40747 889284
752318 569905
249248 233428
73849 844619
559505 486225
179469 718669
725760 515498
888395 670780
126206 761896
942785 335277
661218 612046
436866 52733
91716 491916
389423 606547
277655 567071
893054 405472
534854 720821
804199 787605
51816 353166
593157 394463
729297 507535
409831 614801
316072 514410
588348 260872
770079 731781
886014 712358
341885 513073
721687 482629
100436 182302
936857 633458
351262 216684
210527 759526
792850 960320
173925 33904
698070 356840
970589 183157
911550 724009
745981 638369
844214 619299
931420 715372
96173 186442
826774 476850
800188 790219
266943 825701
346051 259799
341428 604558
674340 774302
806343 750350
824637 681107
23225 836879
624848 930925
125192 648836
250383 516964
894710 672760
277343 88117
697329 247445
173826 85407
381540 254083
36220 857052
183204 760281
576629 668170
497344 524570
114400 831941
310185 590576
900001 364904
247395 47337
647523 411600
745363 907687
847645 652794
448098 596155
760946 310255
177283 464640
326436 592900
882674 331754
971852 682551
84368 867296
391850 557931
335424 641570
507123 360435
230897 71738
762985 979927
72933 834026
788651 914316
65972 817209
322447 765590
83998 50760
113583 958197
890209 674103
804726 22381
223176 198508
827422 345267
236038 76092
809889 799203
36631 970043
586012 936095
905479 918039
415637 298249
231745 627167
690093 235973
450171 921193
57030 520991
620270 598624
313317 618707
132925 793690
429042 310024
54742 828459
832845 948346
21243 35311
101698 976177
526909 390246
793494 763947
899321 918378
604169 684856
211781 719907
130484 855804
597294 419860
455170 165734
930515 346885
875422 375504
943645 549909
789114 491410
71560 63348
316141 599363
714110 110848
649531 59655
29290 794738
831014 674365
919306 855735
630525 580843
855351 409317
902383 665530
207661 458309
725414 595619
936815 909440
598232 36843
405880 421325
829800 325176
408415 45266
226172 463017
804361 24942
231892 219767
710963 326765
187606 532834
313911 563818
356897 873160
235086 658111
161276 745710
403741 491838
341714 324063
526290 724673
42444 533396
64284 242922
698555 839833
675482 425936
28425 296107
446822 642048
451961 904025
356572 225462
55951 308904
48616 920465
535060 562400
408609 310196
922603 861895
174571 774703
474058 41817
331551 368067
294195 565476
519314 737986
784036 522051
429603 528964
351661 735522
331198 146725
385942 282216
719605 767948
257217 765629
405496 508350
454206 552128
110017 255617
501476 596507
670673 941982
99882 321242
833464 732771
268575 547114
420640 370418
608568 929219
297201 928251
785356 780726
477667 579086
229817 859110
273383 281471
57401 890587
150189 694812
801217 799309
287430 580234
711036 774550
227456 461352
674996 395365
221080 152544
671255 945941
830240 349960
827908 676668
950286 612094
758022 536101
191800 680013
378981 64441
283433 278504
626551 453798
964494 609512
599603 437214
457933 568877
300509 543583
253006 446181
167788 404074
397115 299743
22907 854677
193171 763114
820020 676839
760097 452804
248488 210564
612522 611651
917134 429461
348918 268979
685923 678499
39931 54913
234976 233264
272271 31664
591623 349621
113436 721074
290810 802996
637184 543850
90678 575373
222993 188966
616641 748490
436068 69045
961710 382066
616561 698168
886760 912708
780712 888656
767244 635665
489049 912738
573979 275474
626335 748873
301259 647917
923923 694117
532209 193594
434508 768589
59485 973400
956608 414580
947942 688781
913208 761295
670000 575491
765027 979411
830373 420436
661409 730787
464209 869895
297756 530442
124648 793498
745088 464879
48536 891697
230111 144543
658910 816778
972454 668286
263570 912236
349569 478380
368149 678837
353654 244455
347416 282432
332037 649857
72929 900515
104616 228880
595748 284284
384903 341197
350988 581594
186434 740301
687415 353749
32058 957442
253186 460551
288313 474433
244984 206867
270820 234415
682516 913830
229071 285712
738357 707292
352080 310196
64237 609430
357755 244696
859110 683019
679310 918894
187641 633656
332364 280566
658096 494933
336252 643499
504527 520711
68269 46635
351518 900573
207308 691952
760368 565595
804511 544026
259636 805042
774924 523009
289207 281419
690971 152039
645186 218127
182156 713563
210609 457446
112163 139730
586801 852754
125173 582737
923562 917514
744252 637056
917855 380291
950008 170708
972867 300095
663854 463286
824112 669731
530069 627741
86141 857403
654145 626299
80196 94228
144480 944168
109396 840232
907705 721880
144032 809403
888393 913805
358209 232172
279781 738857
969114 414295
771139 279232
806372 248800
845954 654644
324982 646828
805439 543364
101742 360251
99916 977127
588058 770990
386547 320110
660910 416859
202891 478793
568263 605704
673959 883736
862519 641840
176833 756673
896754 406279
571511 252790
480089 689002
59493 879373
519786 598341
838402 730078
597144 885086
307064 232024
52049 198973
283848 117017
155562 897790
317417 172657
386028 211967
778810 555832
761219 970608
226029 707692
111671 516074
480822 103192
932432 886745
831172 696962
650765 909995
310954 606095
48853 241853
715646 403743
188304 735974
860891 688695
242742 217498
699611 461330
966327 661103
369099 608198
745053 904664
599652 587263
275322 307764
691549 338957
519678 222732
377948 604705
336939 597924
742232 481546
185520 884333
353603 252771
39954 974909
719088 616751
630633 857668
804910 658464
748994 92888
644546 696298
69543 917448
815662 672868
28526 867276
975323 614842
919289 842292
815210 323776
117412 928173
965676 206518
725937 517335
523896 531177
459918 274430
654806 842657
238695 552786
257745 495616
56313 979857
939885 375275
680899 578326
64127 913182
463893 882752
781129 799467
561951 881346
585704 264630
628347 679817
444043 82416
530148 746019
797331 979130
486478 685137
538700 386941
275985 236217
516391 924136
374642 298597
439919 612489
716915 813271
314936 394925
586650 640255
876684 840544
660212 611937
592042 665101
406302 384619
899115 692133
799348 773432
894795 735548
354064 293514
564098 437755
700605 373525
216008 730629
526043 739120
844087 368860
38349 141056
475790 260573
238218 774624
19925 881790
127973 377792
208714 710863
246964 437288
141886 789723
45369 244163
633726 752073
602724 258678
945449 365731
926838 293144
955124 349383
639873 673323
372987 496160
409861 235341
222581 598873
796070 448438
885581 626878
61984 862069
222190 473308
328338 216693
208920 457892
60532 313863
61151 846780
61293 476905
574551 920688
450372 371787
755048 266011
28144 784351
406126 503626
769580 346640
628629 953187
686456 552691
641834 338744
63888 539322
892358 935132
245421 710466
896194 109413
213629 720343
129373 828232
295876 807727
259928 556605
386454 158288
244885 608131
301291 584762
383536 204854
151250 832153
521173 324856
651801 432333
35601 263286
786039 727856
385260 302073
92454 881633
744482 265355
894812 917455
619577 969369
904440 918347
391314 163480
406318 387116
245619 584406
302028 484831
750166 863168
621013 385390
263471 43527
156154 579195
791995 672470
845277 704914
170643 470208
290887 321274
304723 607047
237577 252213
516130 788849
607352 449193
480947 398575
326095 181314
764800 961631
699432 975031
968004 623918
861794 886504
833058 356366
648581 926550
331751 647520
689379 356194
862249 889337
32851 830585
99707 817878
276634 283999
188693 784884
113371 124526
514203 886538
742922 466248
694420 176171
916148 672076
380258 183214
935605 251526
739212 762589
647580 560291
542705 572314
735177 884603
519216 714418
422790 569306
830889 750658
585674 908111
304366 800010
728928 446399
402604 312012
799869 737490
143172 499272
751954 906964
807477 567660
952643 640849
843979 267150
365241 653459
27598 233073
443173 199432
365974 198754
377294 931595
400601 532910
278717 753603
22271 974709
946190 903714
877070 726810
287446 778744
723013 492598
920366 835005
489238 38651
129229 574851
37008 927697
468389 374556
244424 46106
525247 239624
325907 314156
964002 715397
470304 594223
118780 570074
805079 781167
679620 817760
295655 560193
481788 307939
744347 461849
125199 839334
28507 830522
714154 813243
721060 726150
39742 872768
936767 723860
756959 401488
56968 838961
340376 333857
872296 380757
554719 620127
667194 467454
834610 370883
509898 838903
240022 526109
378778 967436
318334 516593
292563 249696
337564 459265
562284 251771
343112 289294
344346 933057
253890 670779
461503 553065
743174 575190
887482 705975
353215 335021
652300 536273
52977 896882
693102 668226
623365 785468
170914 82331
260138 207292
812102 541036
367606 852942
238916 524593
86615 526813
728890 419780
117480 565771
730598 401396
523514 215682
651892 808785
72194 857568
260126 493667
391116 348561
242577 576317
885192 911858
728258 496589
106710 323348
392543 433832
619588 402396
773701 482921
917762 707306
638559 674691
358815 217179
127348 146242
361124 590678
682386 844437
594717 401510
124309 864798
502283 570990
483413 783518
545726 611708
336929 876656
693195 390722
861263 731342
49719 133124
718838 221804
138898 758533
865959 696130
851721 307562
299476 300189
647642 779244
332811 439318
741889 459731
812015 318384
623657 377673
534521 211692
873076 672503
122778 834153
811661 462023
89605 567208
466008 906489
431087 902876
512281 337860
752046 422336
974684 315590
296917 553113
249635 442357
115478 878214
639927 446995
302302 603897
81729 867630
139101 957122
123508 585790
944878 723379
829912 894985
757538 744996
125743 958717
799887 447969
258046 522189
323907 157326
365392 469879
694851 320421
957453 654217
90735 189437
523528 409543
612096 795594
323973 170587
384573 928883
753408 811235
941644 714092
241594 830226
749608 843152
87644 520223
622291 284858
960385 336718
850583 722528
213014 185476
647147 322278
830744 724936
403106 636446
666574 600639
251714 424061
450644 67687
90314 534083
255551 49818
550316 382211
788740 546747
232800 41875
755865 595039
961685 695287
768119 729114
496140 749150
431749 809700
744946 803933
299369 649660
873960 638644
773384 841201
831607 401226
661336 921949
219932 731358
536830 221566
891257 408969
321844 308123
33050 772066
469549 399971
172752 764578
98325 205962
73607 165519
141581 531934
771410 943914
188306 767430
96804 881723
932556 715345
338638 630498
721648 395165
769924 556499
819633 612059
732709 383354
694350 576948
884496 705153
24889 181551
237670 404434
282285 786762
326143 149080
123291 631111
470629 584166
779008 708609
623323 324611
759028 857119
462109 260626
236574 218029
596545 825651
684442 372904
446244 381951
463205 933127
940280 895221
780691 383162
654857 502885
932288 387348
529887 749159
43699 373672
772214 842613
895737 929836
245890 789670
836344 621557
940121 330840
542442 709274
397674 641087
89567 591655
52439 126615
543368 385552
299875 596293
30547 282708
232255 484768
470812 533448
802412 740983
623635 564076
170226 638773
541004 701829
807446 512493
885803 936648
583982 366287
978770 697173
775314 550405
880918 932403
937884 429024
451282 541999
238546 683055
350188 235375
302593 870356
878641 637352
235575 421313
610321 478640
556033 743309
631959 532658
644030 421220
492918 870898
176822 768778
225462 722543
784418 544070
742526 673744
62348 512788
940379 676485
925002 601224
165988 878925
525717 730496
406358 608974
317270 189245
757604 260643
681139 347510
219976 854467
979531 412691
780938 552624
150066 959707
379402 738309
580156 969131
616668 680498
887535 727743
67956 568078
804659 89352
164223 457305
279490 561884
244274 593205
341024 609619
874390 409543
969331 610293
967179 211577
787502 418831
29825 275070
112654 932790
697148 651952
920452 331752
175408 84509
56209 926564
91614 804913
250459 463807
741196 469673
34576 974913
655775 548075
436339 303517
328324 436714
611825 827146
806303 707353
880058 379134
549327 620568
589157 663570
925014 697717
645574 961416
506925 204060
335125 550343
393538 279475
438935 547940
648917 849788
374297 283905
23554 248594
518789 291793
571512 840205
863103 324300
676327 919958
563102 897277
911033 917323
41749 949796
461887 638420
832797 238951
769905 324220
76745 863025
437581 901510
54565 363639
210609 835866
542237 715085
886279 670004
314906 246897
321219 251639
111435 56751
771795 374036
533984 579345
972391 292214
446156 902353
20001 828747
394964 825645
518804 870974
652468 653888
663357 329668
387503 933391
143151 788268
890282 631349
783253 286667
382573 622427
513614 208306
313229 617110
589290 907625
395624 34840
893179 916218
489843 752398
755315 976983
492493 857394
416102 584605
788212 739076
756205 264465
35485 808962
798350 516619
348011 627786
889714 695468
522393 736980
480085 257338
564014 640796
925953 865258
847746 285425
377875 208345
470050 938765
671489 970401
56765 513059
545938 288310
805835 750091
374522 598517
392335 171935
249663 669359
25026 454467
303269 150427
610969 822919
291964 695070
792574 613660
90480 76303
732789 492486
477227 40389
498738 747213
574718 666083
266155 799794
294552 568227
274826 437496
708080 374089
869327 639003
812419 789478
23817 865752
755178 754872
189177 236833
225491 675156
118833 35576
94677 258253
239972 297314
650861 955489
262802 435036
246068 470658
599896 955995
560934 289020
648363 936947
715636 291477
257401 449095
220126 750795
543682 715681
841882 253634
198268 842230
308174 183143
81701 142795
791689 415626
837726 719382
822134 897652
798647 422629
45475 966388
638314 258841
582633 955411
367833 732658
875585 862108
864625 673091
764498 399113
455930 583812
372219 406833
150788 691478
275838 661575
325532 861466
372551 931272
755569 749347
930419 389653
399882 625575
813357 796241
733819 455061
168322 673538
799186 390980
689050 233627
485293 311703
599526 393412
150909 514569
213282 733071
260587 831782
86359 82495
651781 631306
369838 286342
104315 593714
837249 626655
318176 520811
393290 594656
130206 856645
369515 463297
550120 292442
795429 380098
451143 543363
726677 607874
103904 773570
173855 775121
357154 331335
377406 555234
151470 868785
390767 329520
156976 186417
874615 896547
669865 816907
351096 591299
346704 622709
235958 899953
885397 704783
594976 205985
915623 673077
691527 209887
729967 319687
403033 771458
855196 382120
590280 350913
591457 758000
309447 594945
253912 809773
877726 707797
645535 601779
893853 931943
117350 878761
672146 340130
736033 552309
301628 558246
397561 550968
777886 911754
615019 605500
562366 260927
755331 651228
28930 239057
221563 747556
826588 668248
362976 929687
754443 790124
149484 917714
805000 515374
75032 48209
368352 671389
745928 493832
319785 197565
401379 649663
479276 576721
75883 130118
800552 750323
55343 891208
807390 662645
506264 357248
677394 943779
142470 497414
242432 625925
238903 32292
416381 808260
269004 549357
335325 600300
199366 690678
292943 290097
387285 34197
903443 668464
498436 225527
778137 290936
922076 347086
765817 745475
861400 382120
256229 789101
657357 220049
126544 840529
760322 786870
206978 777931
662499 224273
701172 631711
237418 559390
720731 766322
508744 738623
90903 538908
444431 372230
76785 106908
382694 235288
262890 536675
193551 82086
826239 341524
439950 66872
37842 682034
651804 824680
849347 398745
854980 338818
265244 671785
195675 69865
350145 214134
354634 656014
410627 606365
54405 977522
669666 871924
800540 784228
339945 203225
831038 683520
626781 841789
476217 374206
301073 409961
57079 202467
348212 625562
821411 332860
90415 819663
360028 332698
206435 67692
578578 880124
305102 466910
845947 276842
388488 251488
307068 796477
233298 282183
625030 768584
707160 855908
152210 593679
643783 695754
809744 825061
786968 492203
661383 591060
892142 935928
900808 691257
832934 805663
834015 894192
755821 907843
618082 582943
250666 475517
75087 900830
142628 184900
59004 522113
241993 756395
743631 979158
712485 466876
851175 622013
630894 336872
864470 732030
562888 276616
909033 824779
264375 136838
41887 580784
159152 670234
946167 736513
668115 867177
765301 286920
882174 361777
753759 64088
674673 340436
494012 706588
821345 678344
825085 401715
636017 846153
400278 202704
541329 703840
489266 715693
773983 746399
586271 261975
745074 573646
501449 285232
268928 47035
589727 920125
805058 749075
588047 891150
180219 771252
856462 359961
457596 192646
722078 824317
753313 800742
566049 426540
523986 394355
445690 662986
557008 696646
799648 685304
223232 81772
713935 467833
773055 747713
348561 183677
804825 735596
913501 825365
696418 597844
388564 309539
300707 819592
747856 823620
226506 708319
189149 573067
219656 46953
231783 284651
122296 838876
793689 770426
166550 881174
56947 850249
289791 794764
691708 207340
260922 430253
933010 703594
839716 379695
360065 304503
366220 333469
207059 679484
348931 938031
712995 103368
190577 61587
914170 673550
835747 625668
536358 42525
640049 216078
673990 880185
409928 607794
744412 386998
903427 786944
342115 262938
590979 788337
369860 595286
542291 395229
351804 238371
127461 419448
122055 764100
185744 221103
494229 70218
221839 749878
395334 207179
615648 776384
653160 654423
861412 684031
236400 488333
204577 215338
89053 873028
195380 839759
964444 387054
181627 168865
788064 749922
360296 358624
537435 343179
804092 610947
131194 431082
456722 916059
392987 173543
371594 269167
250197 749526
20036 872868
819155 789815
369417 661778
253184 56879
752025 978093
657778 545032
918512 709566
910505 626028
277242 658455
253295 430350
313638 428755
519484 718537
515641 611929
932556 721334
836371 242587
889957 728795
486336 596757
633232 212194
165305 74696
834255 361700
348296 257949
205574 716760
965204 204179
155483 897207
729142 405773
29572 960886
395259 764782
62292 474959
188092 226970
683222 973048
413586 903057
399418 357701
876599 652555
881262 690566
529646 689880
485243 596908
839382 435745
369544 871373
358866 801923
590709 908182
408366 928548
192028 216045
919336 827651
498781 81734
63662 229117
241542 773682
363129 551188
678748 686303
99935 273203
340334 288521
246030 467975
495633 377365
611334 300084
315853 641105
50711 808303
789233 426967
497906 699950
576219 850811
593525 390461
40672 781223
753728 862187
738907 321509
858116 680961
571418 661577
786473 750297
761647 407491
330661 600928
926811 677644
623997 308797
98201 884511
99266 894386
757648 825615
964125 693177
338434 280730
108171 327815
343360 873006
376167 554336
94830 323521
934328 424224
258730 910635
531524 581944
934896 248879
704853 625905
532625 211194
730112 563789
693467 877064
869760 670450
358183 213096
825605 631431
305950 620208
787779 735107
838483 728123
406279 432156
394859 163591
822874 232327
877959 839372
211475 624333
77041 947491
691472 841854
74020 833540
328091 186393
241169 854491
801317 967642
252438 20218
158084 888753
933058 406464
659488 857203
818527 769654
360738 803644
130446 849923
875002 323144
269695 431265
376374 606887
684843 691291
902356 713497
597000 681360
357965 231035
853912 733834
722440 854723
120402 764786
130304 856697
288148 469499
229184 217669
478581 658543
467253 594410
626298 208597
949622 696864
52601 903787
281706 745680
448641 603766
241768 293992
271992 724227
870387 910706
559848 871786
262190 675305
451011 303861
347019 290489
611990 405181
771960 943118
214201 858712
793460 829760
697622 459932
922985 692006
218602 146914
50202 314462
668432 873055
856524 353131
469207 572510
632504 748537
682362 836227
851736 943692
954976 693480
525745 237013
281861 177847
907459 449690
694621 97707
484585 335390
852791 672678
297504 559900
380292 302507
120191 524117
28967 287451
180974 33315
733193 803307
103817 515581
751907 538255
769243 845066
803312 750567
340862 157118
594389 407668
942842 309187
606498 771922
740743 474577
902422 734529
917076 316301
325283 471781
50653 292561
141827 805701
682939 798247
720036 120597
149963 895267
195003 750771
738318 837524
654342 619827
743019 664350
384471 607767
310869 221773
918694 109519
243054 783228
52226 907442
804849 124395
292809 447927
432863 65815
388764 561668
193265 681817
620357 874222
155279 900928
840208 395105
695940 334642
615739 877401
889210 697251
640916 677379
682635 519702
362191 910462
182614 884646
924798 419679
60243 438366
483521 309735
521519 926880
244286 426512
967149 662277
836427 622930
861097 645890
250528 706335
406859 236518
369242 285071
742260 654786
306158 190880
184479 696116
158637 921813
912236 673163
391034 885882
666736 871173
358821 591684
181761 415227
45164 820740
286191 781743
200599 839919
978086 676601
763893 964840
752851 705523
800747 304446
943685 722498
405609 517678
739543 268636
445235 646655
583057 977223
851352 305454
54381 513998
23492 406272
830938 684699
382598 603884
877917 671544
750657 623965
570076 224850
877578 903869
593997 399126
386714 252481
797683 978647
887546 917018
140230 794616
110065 890915
635285 790990
724848 767132
758574 775425
691490 214827
413237 367808
287671 163336
927134 603174
733143 452672
488947 41193
106602 259365
735688 373442
461968 592127
609099 398290
520520 891164
44079 947527
62833 604370
180718 716480
344933 311156
664016 542914
648218 329527
403457 512643
397250 245196
935848 349139
918999 843240
35405 865168
204914 878749
757956 907552
560102 636422
689323 364250
521090 727437
253639 798439
406013 474449
746587 92184
257138 443843
862673 687149
781900 386875
789289 947878
316912 515845
763488 406683
130046 454017
977736 235960
326175 322886
768943 309344
571515 216138
191712 396461
280745 574289
906550 687976
300293 525959
280669 277066
374906 554695
664815 67424
872017 74719
214909 878650
202072 36212
606318 821409
230489 715906
631813 947532
393622 931609
808466 934621
288781 812600
672165 227670
784033 300786
46743 906547
361350 865977
334261 589674
796631 738466
951546 691787
234553 776199
405603 235740
738091 902470
256062 54427
87938 85047
498944 596499
226332 738034
387024 308794
254653 516088
832267 699179
605603 471039
273854 736197
206668 22887
526579 408979
659462 978555
430908 674467
439030 556086
241207 547804
413880 664059
467037 593096
105178 811035
688950 628781
590329 319856
252165 21708
542214 926558
522437 217466
814314 534916
189947 73725
829546 695114
889495 693183
337478 717934
172155 763196
216422 755058
128872 845554
305846 243630
35623 770537
371323 625109
768293 591129
975922 230894
465205 870620
755061 753161
308367 206869
39983 895137
88870 345730
750302 538180
233333 42635
91510 513747
845220 391874
707003 465349
447569 46643
888436 702650
773470 531011
541796 368465
449646 91538
795663 418697
610500 23617
705746 202754
236573 476771
794889 527623
38878 681034
342405 585767
86682 267462
733230 264353
617380 602958
800294 259283
43827 313546
882983 407418
140913 801540
64903 487010
405005 362046
375330 739875
569475 305426
113096 791283
370682 138138
548535 438823
454485 904423
627524 367698
924073 583447
231697 758355
574817 329269
213036 453501
40865 875239
117053 799494
879670 713829
800821 436551
131093 856685
372101 681145
520850 891006
307815 193100
640843 420824
819505 621141
391712 294416
221852 473273
341803 243905
113498 767794
555343 565092
833865 360736
256373 452097
969182 668567
635092 688235
617532 442685
181391 222690
159001 856787
862435 884541
629832 255548
617435 911468
264814 828016
771352 395330
775078 411013
292560 295994
639992 569297
593333 293481
283612 751803
542951 716179
652198 954022
715385 820958
97114 567084
885983 704120
281130 815458
93178 827895
626415 466610
438500 322697
75555 33611
821474 745348
494710 410001
656264 775796
763384 859679
848430 291290
213275 581856
769316 909411
485853 486526
668480 546770
782357 299841
562607 439611
211211 36006
326109 274871
774794 798650
55427 242873
365182 806162
633642 154342
791166 415825
285682 170156
242698 583572
457854 167726
950168 173254
862853 616876
358039 188495
810662 612199
635202 457999
785507 267247
758471 566358
157040 540762
338012 151261
273994 736048
153032 42321
731538 803916
370552 714375
811853 110253
425284 673322
929723 413474
41320 810639
173671 758823
167652 119521
601276 957333
123388 381028
978787 673368
125328 972356
244006 820186
941322 155285
46616 263787
220138 150361
24374 127005
865759 639493
49442 885285
40269 240643
261908 833850
400612 510447
280098 114029
374090 255068
895640 726477
150199 512248
225371 504849
598723 413604
749356 528301
391865 221616
626194 309444
123833 347182
36957 532808
582099 837620
625464 33721
759519 306101
61230 443499
322154 275929
687420 414321
884182 675288
145046 694214
687777 817167
526655 244758
850935 736257
234743 722253
235421 301185
560763 896943
416567 211394
78225 164669
129823 149951
619763 911370
446285 371873
685100 690287
277849 561786
627860 174264
608264 472019
895940 731690
125809 852822
173816 464476
192898 693083
880920 361491
548416 297880
404324 891287
601924 44843
805306 961624
704337 838373
819927 776456
551342 711552
693663 618375
582115 367476
666678 332417
806487 89481
777905 548199
502146 691398
436726 72392
144573 969170
759070 300650
651693 850337
853798 482451
710109 917965
250974 24863
547054 714581
46642 967517
776349 408033
746034 543366
774551 978329
946499 715820
890233 405009
546127 297136
80757 768701
715633 448912
22964 180047
510232 45089
805098 74220
631882 256044
559510 341648
312395 622080
62295 812540
261699 793584
818310 646201
782094 749399
281696 190595
867358 634300
294143 558829
238780 760685
827979 682611
346621 291428
759481 565839
791174 736895
71973 548441
875374 897213
191939 622020
816395 399567
446675 894184
730664 93198
750446 456618
250693 673430
208009 809564
667483 226010
105904 882555
368184 287581
348691 301630
905387 435346
537857 719809
455957 913480
233849 22659
366473 124093
266313 798316
894071 930967
371393 274145
393294 761800
887714 632020
372629 305900
691245 406613
491357 872862
277560 862186
538263 364893
676528 844001
170848 674291
501170 90148
519038 716923
597147 530448
716386 450667
323253 313798
839226 86619
775045 294129
210591 191587
178640 523140
141597 494571
264212 555820
322429 543904
670014 962675
829224 685205
786026 423732
923196 728717
513076 644446
910122 340986
628954 859785
130695 690615
278027 817741
332255 559395
257527 213602
832000 898282
635919 538474
811966 412739
564941 642839
745215 543967
45498 142171
530791 587795
65263 239110
28101 797761
770786 908941
575240 743205
197679 465581
774643 936159
478855 531598
54256 893847
171943 737427
352997 292943
41382 240406
727489 512402
248118 407593
136538 693905
149093 914340
367809 741793
182564 732101
768940 397659
866587 486299
31158 876332
892422 597951
196510 774101
111420 840261
130839 833570
912594 917345
549534 863412
345256 269786
124372 763337
378993 420302
213201 874077
53176 196930
411282 340591
497845 748161
411784 518529
570378 43335
74911 68765
349779 591881
116512 354803
967068 689531
235311 47860
288471 773003
284635 473810
196783 201317
634202 763374
365020 871347
63109 536726
365259 288779
456719 337549
490361 344698
924368 882331
132967 863827
223331 583991
329586 193254
546640 695108
331281 437784
258810 833299
265870 537679
687344 562160
259927 810468
433137 419807
768639 316824
256504 520428
691975 480292
128623 56264
874898 853117
692934 338199
35869 574053
497491 374512
169034 811475
299719 581864
914960 375187
101429 176730
156356 168976
275454 92795
773510 910851
671944 865836
31138 147585
664913 331615
909455 779444
401363 561947
462050 662010
82298 134569
651675 954992
371159 701802
639112 940623
341904 285709
498977 91637
724765 118579
693013 586356
253234 247925
629786 543286
691301 217071
400848 930133
262386 531481
772919 941518
748205 776129
673954 540959
88263 55942
768200 470452
972289 618111
901320 789162
269194 135132
629628 741846
624692 868201
693248 584340
334230 562014
43446 808402
766672 365667
605620 792249
797086 969670
424196 304982
770563 696768
103174 579188
435436 66640
339726 607162
894659 836611
47123 503915
938959 730061
188212 694064
318841 515562
755736 751853
244706 679149
238693 402241
60097 297921
372982 582230
440591 39612
848552 662161
173314 765392
612189 402783
615705 807080
304165 563250
384745 567522
358463 865820
50347 433591
534440 292340
285434 122022
673258 576762
41212 138121
279293 240724
88019 79740
159623 541398
23762 123840
632951 771949
490763 43054
811132 527130
244815 596013
330888 857799
192350 725839
385749 36919
21223 964153
262600 711474
149046 509797
224750 912609
741790 456986
435291 563674
684114 608950
721363 923879
773490 289005
510797 346587
98619 762331
600953 310105
207691 820160
316370 265742
613673 847252
21134 37982
463716 661738
430602 223513
25257 40787
927555 393845
396183 545483
778004 929813
44486 812169
151492 501110
466573 863054
351239 225655
633141 156103
685489 689026
292954 299592
159312 455295
772043 396838
24392 839452
722344 493341
953155 675212
332165 650310
209855 759831
137028 757792
928910 885461
38489 888153
407651 476586
971121 447774
721785 483701
39100 887361
69226 904723
223509 850492
206919 687903
869283 891424
826566 279542
588848 816598
94454 863526
777317 783365
175329 553073
103043 223843
466513 597718
689719 541537
410223 812556
908449 781132
54305 198800
900910 338343
925971 393633
899061 389991
79034 865150
915927 738764
121770 244953
589216 631257
336099 567745
755682 372207
489257 190495
529768 394547
129375 854211
477947 695569
37486 823953
296817 652168
104044 772168
245546 732040
863527 390086
20640 971816
670615 868580
126529 962027
190059 539736
551105 826593
306260 586541
939731 349926
817472 470557
859831 74615
329433 713755
313902 170869
142875 523679
660302 701179
55103 835279
58791 170546
776112 378584
460997 621875
414870 564845
732749 533119
883604 723168
81020 295097
96776 883221
463677 884677
244556 755518
918745 316162
300838 870299
871911 672505
939312 725237
264239 431489
789035 755280
599516 818172
619100 782107
108260 55520
111050 81423
31558 873571
431016 530803
516391 144583
899150 406616
653337 653396
31435 347713
351803 143175
24013 963256
525567 41663
729844 793230
532588 191237
665088 224939
88321 860508
306336 618344
108528 257320
417041 892697
570927 427174
689315 377726
275012 193118
321238 613408
255486 690330
623443 785830
383503 568981
676964 947452
643385 923342
186402 825790
303215 607689
285528 784531
654613 622126
843529 368397
149781 538544
337442 874059
557658 452267
630016 949044
635885 572629
396353 592110
496948 596058
247940 436159
329858 593132
72858 81322
360237 209963
502976 684474
259745 832420
317148 562150
354039 843166
440666 858880
349641 737330
59292 433928
886785 710318
124246 596565
330142 246625
300686 558460
907650 594430
845276 282018
694280 542722
334717 631810
667114 520796
361235 971656
800706 57781
643938 464096
247453 467155
704879 301475
580697 191287
839521 405123
748863 846772
234885 839488
606301 610201
238480 491687
457055 350665
594861 258129
574565 725102
892966 933659
829533 400290
66489 585710
697695 183569
854793 648458
372717 306926
238153 474761
720675 890738
691312 580294
176805 435211
305348 494443
928329 915120
913101 756025
66066 137657
597575 893289
690984 383477
342458 334060
205728 877331
674557 921710
254384 833795
310242 216036
583708 793240
208164 760342
791128 952161
321554 324659
63508 218794
221132 688152
337282 584342
176394 441220
351272 173686
436088 318715
630083 476697
634057 556251
720669 786305
469754 767388
69611 617181
358180 229341
40455 833987
580431 745570
374191 206501
198090 62217
352678 184826
627307 589284
404476 586822
362418 299948
336061 150084
926669 391712
298297 475469
465829 410556
203328 744981
342368 288828
63359 869269
526157 293670
200545 680123
758914 401082
184296 643923
357769 217240
964510 695082
335805 148798
210130 842085
255026 764327
903727 918463
36006 765841
396276 467460
675734 444141
879398 852941
942654 567184
88735 149969
661518 700520
979833 662725
323976 492301
206163 712716
355881 222786
279553 178957
239933 473265
352381 215870
246913 771011
74226 129423
469664 43104
204918 481956
936573 725694
729721 373878
676554 699039
813780 321509
831713 897966
526356 379171
390659 295281
75799 844624
257292 561701
221657 711472
713735 214465
786484 833354
551328 864798
40124 106043
610261 280313
878299 856504
516069 563993
259125 682049
866738 298906
963257 348360
644790 968043
166221 744916
583593 647891
584918 597537
161720 599717
734068 835225
369187 309588
215355 687446
42269 817572
597738 287579
100532 70257
683401 548879
41303 942569
786802 448697
29499 149492
638517 453064
976025 411964
921367 352159
483394 852934
735435 452433
746759 417811
806009 513717
719046 113214
97904 382508
792155 954684
677237 576936
319976 294634
150027 868143
196002 49088
91963 881830
483747 339167
802328 841116
53718 198277
837729 723757
54419 197325
669838 868918
192170 237125
370690 287148
150570 556428
801834 776566
279717 578211
633355 465098
328174 868466
565694 643987
831728 351346
901424 664141
351730 616793
687978 351465
620998 544805
728773 420569
727411 680295
681472 422595
588774 293382
632704 363348
148595 936596
384336 660524
531749 588505
47695 859517
464659 46369
218619 752478
422023 908784
354295 592512
414370 451026
793053 461611
331732 873370
422051 765095
517597 794740
807842 437440
34413 50220
687354 973966
91645 870069
970490 413390
660555 592224
530347 737081
125687 941832
953076 339386
701684 451424
314095 247663
434913 497872
577877 657032
705267 198089
253694 705196
485567 36160
836935 389856
542346 936095
529784 787608
474739 375293
252482 579795
942991 897900
956365 544923
902993 723607
943753 206438
612048 264269
136801 175940
395956 310913
823271 669790
920361 837739
366250 725694
731203 451569
473423 765100
938717 712765
158908 800790
43382 876349
935449 425262
930786 410730
607190 604749
871584 919599
815811 369670
42955 266110
314075 642544
918137 661706
114516 806527
166798 700540
497187 92502
586079 717478
316482 603249
908972 917370
686219 353456
512713 565499
169662 548161
303855 489491
96928 158257
219900 865439
708589 723598
70712 58028
742370 729719
859859 686389
284177 174005
127193 527717
800960 428801
897621 660631
56668 242812
587501 597224
718641 417640
208904 392177
130360 852898
119457 932991
378253 231681
481537 576470
293720 546650
757080 655778
290915 562725
473850 594399
137509 717694
223842 397119
770812 921112
752397 392321
564341 462031
55513 927935
186641 406128
271914 854357
83280 19029
82224 968360
543765 746097
887021 382996
150107 897525
275842 482180
196206 464052
444276 661121
303304 584563
291773 559168
881237 851723
976633 339057
150314 120704
464163 422439
842465 478886
603108 525931
932079 434329
335123 757924
306466 524463
716085 835631
364955 592575
105241 922788
682152 817624
82445 534391
142262 692242
254516 437321
432810 531117
255290 51191
151894 697382
386603 32149
816785 791262
531644 562380
323815 612598
103272 916993
396238 270245
366796 199569
87446 836380
279717 569557
882150 696958
214120 141602
481572 574119
289181 661040
837367 734176
370064 652032
339568 719658
460832 48445
211663 800186
567881 897084
241441 442915
825318 613454
245136 276387
757382 746351
515058 682034
260284 797517
126084 956504
700614 632928
586954 315963
723708 695226
897353 405760
830312 424526
189081 767224
119637 798254
246851 412915
524866 755652
794203 439801
251633 560545
572057 219535
251983 501010
143513 549042
812078 749429
741743 480336
897071 928811
301492 482975
937988 254408
742486 537220
136747 863851
105586 616905
825108 838033
741625 478519
154391 528703
403094 360284
792100 703821
490073 221621
193688 765758
729012 863475
529468 289763
929955 639945
613311 159853
326518 244818
358688 306719
725998 513629
507477 232934
217041 214132
296971 595914
866102 407579
601933 430033
644568 420115
762102 786226
911731 738030
258670 452320
193385 184256
637519 686365
788221 390807
208199 457691
227737 744133
680104 438924
896452 618076
833492 693192
313712 271133
268972 189330
19919 864012
20069 233240
225088 849822
164823 394786
338364 161216
143510 56389
198147 632251
841550 404635
206550 197491
489700 380116
597588 323920
630559 313821
656320 488271
438833 546659
699940 453779
968358 288415
120511 376832
93330 87001
107954 840908
310083 787513
655546 219254
119102 382672
427602 62315
884485 911580
244038 773924
774235 601603
765418 399930
503919 68535
74573 83234
677974 628994
235563 683752
69909 548757
758000 717952
965796 627439
953440 631657
813656 229591
459706 351820
190197 178196
706079 328960
632906 573220
442977 80904
677929 427794
96950 573707
874270 612667
254630 416683
713290 101699
509310 506805
267417 542548
897116 337432
665120 330963
115771 595620
853605 829946
82570 537181
750731 979484
875295 863050
368553 673300
122730 835269
221976 748617
32384 785792
62181 851814
522987 404964
672448 541732
597455 952688
499845 779910
151765 843951
343330 627244
727733 756827
801720 376232
513499 646227
842527 647968
242995 776646
55618 306563
260171 827580
86088 480687
614401 887173
244255 827015
885962 912384
798326 973840
158535 746725
960370 675610
582919 830158
971338 337278
210629 838169
121712 940138
155345 958899
65088 977934
730493 835082
539902 596922
252222 265327
374658 880491
763630 576226
127778 827059
647040 647798
734110 323475
191067 179523
571573 927740
711241 103791
757054 654862
331026 655486
91046 636527
647484 466591
306312 608937
109182 330870
238086 758281
82511 915978
138981 959267
669038 964400
384751 599779
318136 590070
335328 657489
88206 867883
308157 832218
690273 525129
947128 716775
547613 694801
477238 595381
801376 462026
590632 351805
57753 418872
541559 705445
153339 904509
56612 145044
825035 665317
871667 920522
822487 688186
591780 350489
586040 949968
474858 594484
470169 105874
643241 845213
403832 38590
716052 618532
61015 972405
719810 123619
32959 812421
602079 767727
347070 303883
126993 570844
349982 183740
668161 876071
543920 608828
371373 929992
473019 781307
386082 297447
759914 535145
701950 519168
680003 942366
165019 921444
124338 975676
750640 594642
582658 256757
763805 687975
820892 231190
204541 639813
543589 695760
365432 295451
345702 313583
76748 807597
248452 526585
860701 302643
769178 410355
291172 658866
419642 239712
59061 525249
850815 381766
330638 557759
787873 546428
136965 444039
496742 716301
836796 388511
214333 661451
874215 852629
403228 258370
384576 42563
977496 178716
713894 619224
161552 701888
23747 900997
25422 944217
110701 333063
743987 847171
391348 270035
20620 954578
789702 750515
271061 274192
126971 56948
263270 431953
693361 244942
731845 726940
50538 901736
500677 105336
621329 969997
291975 927076
175489 676178
568023 441501
168999 698602
682897 696804
914264 469568
647242 262035
693097 388030
741833 92463
300112 282191
654935 214883
352535 233310
25765 955284
36160 960669
301226 248803
505871 840045
672039 879972
200574 473516
472927 176364
918303 693131
750589 70652
85006 873624
441463 954420
323496 602415
617079 399843
182603 762643
559366 918848
72887 831755
38000 109802
652462 972520
289944 294179
130097 102581
55924 318189
20716 235552
29278 336715
167175 121099
979963 258709
923332 122646
929591 678271
297305 531776
52976 902135
340340 594672
92737 72096
241470 115669
50430 841665
626373 794739
558256 454758
356155 656351
763693 591916
326993 555878
185052 99682
174184 766902
868641 326133
257128 577690
621424 585063
84915 863074
716145 919891
797316 263341
195280 681020
667863 870849
495748 863722
662772 514058
828613 683228
468354 331598
832518 682382
656470 349235
699550 497227
605093 464824
462339 593743
344705 161629
350742 268681
330413 649672
692042 588684
781492 490956
837712 636640
891396 730998
670691 332222
940346 726703
521672 520870
752129 703635
276375 303158
810120 315839
648585 909736
482023 509078
612859 330704
689897 375692
751428 763960
28887 297234
56503 874164
813042 409519
720803 835008
281701 560240
749906 637827
417143 594831
643213 439666
141877 164072
817491 732571
941994 208881
867627 68138
476897 72379
360763 254328
255049 545356
483870 452284
570645 46509
897752 478622
696600 373073
370966 750157
415805 583928
458875 336508
242864 292273
402646 528153
589186 257453
445097 655794
632853 779543
340419 260296
649102 57764
200224 205506
510945 683915
498612 500642
718971 127865
878513 689270
195522 30117
404981 405761
67944 536238
515952 413720
799255 546112
818540 651799
874240 864484
72280 851092
378481 417791
132108 758917
166520 880196
479870 212455
228864 34160
800303 515742
39344 183316
380473 330821
41125 138761
721468 614073
747825 274800
437734 557967
75368 137853
970797 306192
623778 969744
61193 854562
384298 712212
127115 755866
620278 782402
719457 95397
879875 906527
728360 509831
406492 355624
711784 466451
583353 721088
816644 643855
505951 505071
728153 888180
552169 437492
873101 378587
728516 381091
390896 341905
113435 253645
443468 844615
787468 415263
632693 557160
513243 137045
661892 829141
266540 538907
515049 510383
220825 750249
805270 648825
349725 299022
52658 905394
186490 220309
147422 451458
722258 923835
79077 632099
695659 610069
118012 838514
405987 493533
712574 536702
253693 753260
622353 428036
85370 823320
588282 317647
363932 332219
644428 962438
257601 834151
338511 201700
712796 375137
754001 709079
868492 671372
21060 964800
36330 494627
640029 330043
806156 785163
643498 601568
235970 853376
639773 127532
594029 531736
33856 239136
974856 401117
692533 804699
174763 675354
220118 698792
801799 749976
56603 465180
67994 60233
481037 531318
80388 937857
169847 884989
158831 382907
576167 473899
950199 359572
556269 633583
699359 723883
344105 298460
873342 904931
760222 312718
456961 561995
566522 757753
710227 473889
434743 781130
171905 637629
860115 392750
522771 415376
274046 482955
503545 839471
424306 657377
663868 505811
269188 92218
756672 536819
330233 173813
167760 141238
832021 352710
77476 70167
658125 417449
175644 772041
697029 778864
128344 968021
456671 582725
54849 903733
526827 208808
372125 224250
878907 327582
680341 506669
657474 658515
376473 602531
967856 286663
200861 939155
117595 593295
211091 839833
800802 687417
871009 72383
502168 201489
883070 727982
328678 601105
654242 928160
433746 415118
572106 941441
297987 253043
122264 246595
640250 134580
685205 910258
135863 171483
125886 792406
249217 906875
21557 933645
729441 494913
325771 266782
46575 859929
904501 435509
87650 821396
266000 417977
639193 668771
849218 833097
223944 701114
243230 429840
729053 423518
304297 492196
221782 709583
695153 903070
442727 387181
874027 633113
866798 636952
265600 488906
113516 599278
338049 200385
320928 538907
785579 798893
737316 485173
633711 331815
766832 587748
894873 675467
826335 669400
337269 274117
158516 887815
567135 496821
634068 765674
718163 470183
78038 130781
224648 79617
312171 533010
86942 54763
941157 426309
223894 193662
831128 443849
861662 919660
638907 124045
919373 671059
334972 203358
695173 177290
541204 917240
100438 271793
82677 943998
643651 56271
42503 838865
918906 101013
607001 673623
742899 488891
253522 561395
654471 787414
330851 650280
642207 566827
309716 596780
53374 304378
700834 847791
572896 225623
648969 638408
167559 696399
492587 464776
212087 721887
615220 306839
167802 741421
541572 351577
29910 812888
836735 655224
635036 56391
692944 572214
754764 418067
554851 379867
914595 672234
868311 722099
874634 843678
541653 757015
408424 350746
739534 976816
263724 458209
719819 472622
827030 692659
117214 920358
880894 850659
352050 833184
152419 669512
113818 558817
221972 749174
635779 460521
246084 582608
670724 939789
341815 325104
328925 857659
629141 571792
201821 477110
597352 35197
478751 391240
200646 389966
599992 455224
67256 558436
882101 847182
156022 850589
523284 753182
28917 941459
800088 484544
657727 454651
213826 876192
404898 291305
817828 632035
28499 392835
388248 493203
638497 120615
943079 734647
736418 551381
350481 171450
178669 884910
588013 925630
360257 856876
770209 404605
122138 585515
900289 115975
445074 83404
608936 787464
330153 870780
117272 637314
647455 640879
654512 621559
258318 562035
107330 258229
769003 321450
778565 558715
453760 588839
152442 918403
341503 196925
930202 716436
465974 557681
742267 797213
491920 61829
546489 827312
685658 974108
291609 656134
579488 194868
883175 845556
246586 857212
606235 27086
735368 265266
834022 799265
186710 765894
205549 746807
102314 172107
583600 30646
362486 293428
87972 820962
73712 364626
286507 64450
84990 348703
961778 656403
633274 659203
840670 88307
663059 65917
266674 429997
663569 615317
513078 836606
262850 819733
123070 410427
788422 945341
916763 308778
663857 971451
735065 492514
301412 600237
274262 563182
868971 382187
659437 937190
796162 768859
274165 918609
963225 674029
836252 630953
276124 282246
958374 701730
297313 282024
516278 769983
806902 784658
250357 839132
239362 75752
325079 765342
322958 383007
132768 979301
602360 395433
90320 559006
939347 626312
536077 302992
172760 775026
745084 464327
105469 509897
730640 562718
341304 210072
840376 374910
348528 936317
762406 46963
544230 511697
835865 895016
787177 942293
94103 866494
334865 562038
349163 889826
54891 445598
692799 730566
756229 284508
361527 552567
570101 760348
204521 839199
217767 77906
818689 599708
367313 730226
343751 280321
339210 594380
691718 385830
344649 259334
825460 408678
104158 226398
481665 213246
264189 189189
451665 502211
232709 514081
615543 405892
177939 733406
154382 779689
22917 806130
698896 361648
336285 269801
961595 596212
203833 636605
282230 422121
444095 29752
376922 935638
445034 23925
232923 281941
277982 760938
612708 485042
384837 205248
204114 934748
809634 800745
764752 273389
413652 599375
733919 904064
389433 603489
847012 395607
667566 927554
778010 389445
976564 372581
662147 540078
309307 590972
751939 662944
768148 863246
262265 555457
638726 569550
953615 277947
296773 796806
238196 717217
739179 674387
812540 76231
465310 581809
142313 528099
876630 929069
339524 354046
30452 832301
263187 272898
436689 827775
912718 594166
788568 725835
336436 570694
615967 895651
263321 829910
658098 665306
200471 126921
389320 557875
913599 672821
786751 403487
179386 771728
30666 45549
850807 945689
350379 295679
125920 721396
278029 80305
647426 665907
892920 630048
582578 598072
380517 201085
450942 93452
596998 441232
555197 708116
354011 177341
319888 614657
135167 795740
268758 846683
287070 164473
125387 850296
307244 556984
476408 690735
748687 745749
520942 220264
629819 57283
613659 865314
223887 217209
78235 102509
254676 459147
736813 481299
117928 924284
366522 320015
254496 808248
365048 660227
557507 917658
672752 844579
365221 308490
888952 624577
628612 571433
369551 502934
388189 604522
872636 894608
598321 416909
145167 513548
122895 138253
148077 781540
58859 365673
814690 370270
611568 598226
369799 976002
20332 238692
376896 136659
278961 560734
798572 546016
183333 171823
120788 874432
37169 309709
575103 836668
433414 815704
189025 546409
650544 325042
336978 547300
659190 938257
332507 248455
92235 591143
359137 297996
693938 841455
643097 91525
19656 401418
230916 844288
895537 838188
245862 539009
685960 604599
800232 438546
553627 421072
417566 299869
753378 803326
380659 671846
591055 664494
941100 683794
92048 29638
332548 649078
585798 770389
247067 232755
296988 544312
347741 583948
709310 208044
600544 435835
755674 656154
316240 188584
844353 739470
59528 813629
47408 175392
845087 660368
451341 371135
113883 640457
324273 317158
167124 35246
437400 213639
813718 580962
707924 327415
212954 60200
957785 609851
692794 579981
646051 728043
51922 963419
209775 687722
338004 150960
307212 541532
569461 653662
319348 526883
526590 387854
785414 396338
977276 608703
58593 839348
299188 271706
588003 752285
929649 913839
659343 652077
601354 582462
305428 491960
280645 240862
513808 55063
112088 385972
202896 762688
615182 407449
806721 392644
533223 776330
295958 789307
660932 64395
94071 536868
773241 375886
347875 303038
272688 822090
587310 272810
780707 880314
792393 613407
120661 799179
287786 812928
108087 128618
401638 652497
977508 511107
74910 922347
681053 844387
312804 554349
341554 329847
925162 644635
635692 597466
958482 654796
400581 743606
872945 703790
351577 293389
882434 716525
772215 332662
887171 832068
133678 805897
331887 652098
633921 757716
578212 847757
40944 267269
434128 302766
211190 706060
435559 613873
779501 634399
235594 584915
877471 709488
34463 936468
978845 238178
258709 843386
138402 975160
206480 250997
526847 754118
924694 702553
309289 303132
228220 151236
541011 720883
791313 971698
443119 196260
243085 827710
735380 913279
751196 787023
58618 831752
470685 584559
650363 62928
817112 324625
73199 924668
451686 365585
653449 842554
372392 607928
276216 131046
51615 196855
600992 583656
775617 27029
752957 618208
337186 275401
65403 548185
556494 744411
749076 769110
357307 656175
739796 760022
746967 819014
367928 221751
317548 774438
32361 764041
617240 697697
618434 191229
42703 810496
248004 71029
268644 37509
670854 593973
378378 172196
920682 731458
617591 748083
628353 464608
809600 408407
583617 265368
496400 702586
759606 637795
164484 593118
272216 726129
742921 668044
688340 354845
821513 695346
733073 557469
445664 951301
431413 302197
531598 207893
352012 632248
319324 603200
290411 191196
358375 909895
550749 866116
481468 937180
456444 556273
93638 933237
913670 717903
847547 961854
952092 637866
200781 107011
127233 949825
637822 941869
124253 953433
526617 442783
523161 227580
738885 637892
28103 873764
750263 276209
253884 852024
101372 813096
854101 937232
381522 622863
808640 522032
233062 734742
415383 607267
385123 925570
842598 486293
211032 759047
95895 881423
366955 317575
20353 967563
220667 735582
835439 951666
158777 703024
511438 898378
453366 590384
211625 466829
349362 297677
379576 601394
486541 383399
625299 587389
545001 745678
134208 157667
145049 941490
106399 759296
793560 758921
363023 553054
800390 968437
693051 975911
49769 153009
563700 56468
359136 501066
748532 696993
801343 444539
626320 181404
596850 32416
405201 287563
598435 205392
948556 361882
564097 877077
25116 901497
780409 886358
353400 219154
523791 525727
185923 451827
82534 967274
44760 135866
612561 347295
833523 327927
822314 397321
647908 324121
834755 374761
256271 30508
978798 411868
903161 366098
175240 774255
39957 830429
846022 393454
475412 736338
129956 855335
566545 739611
731933 898811
877114 903015
249965 53199
783222 545722
75674 874616
115958 384591
149737 832081
798875 750822
563589 738516
652266 842369
520208 165346
730584 451407
761245 979830
749930 906847
126275 142749
157515 921578
335728 199454
241355 586233
136285 690784
756482 57836
375469 507857
193952 74984
823237 336049
447521 536657
788098 799070
366967 295431
367808 930424
321320 590908
673718 442698
92534 972756
784778 839465
118855 239478
179820 522715
729498 834898
641012 846395
421553 242529
565012 874911
118272 102478
806731 747658
970656 172304
413463 217834
484966 485497
491725 246551
236461 723579
528239 792805
272306 664706
228020 847566
727610 443597
346369 887519
223448 747977
406139 236170
45607 958972
736549 534808
281121 571234
580045 546049
144789 536758
622989 322409
33639 808090
491533 60425
46854 868448
732901 885950
214548 593104
249292 31259
609687 612295
308859 564309
61582 296956
678813 698962
466087 782146
782452 298664
936460 216586
144877 709108
882457 92915
830106 670650
761199 628316
216078 857442
198110 479101
98303 279403
338158 337755
868657 408210
30730 446217
932190 403633
60896 446079
450068 619296
258555 780609
740030 787930
674301 868813
896940 732517
241351 278135
911435 693375
706110 813823
228758 480759
732309 453975
368194 134573
535336 694014
468893 338339
62451 910177
393123 178663
227349 217586
340379 318730
727324 606687
140076 830702
128002 421971
719661 125550
697594 815963
90529 74644
685621 910005
875697 853713
557087 634660
786289 919687
556847 814966
152735 868670
20501 926415
551096 939599
199934 628657
197270 552188
628692 693880
524432 420347
236219 406825
619800 755156
500751 237148
214365 756483
487832 529131
57184 417015
740013 851787
483583 687097
790619 925811
920583 671641
751631 554183
165837 807151
64600 869485
692823 564829
941514 350020
954834 626273
121477 139254
727370 601055
703036 113804
283645 559734
524968 538184
366920 220784
748672 906411
334026 643049
20447 478026
23551 456375
92733 555115
240954 295667
497509 195431
306652 241120
94067 323848
405942 510332
341944 291602
613670 395269
166471 124890
72659 40469
363908 329459
106496 230868
69236 107062
801912 479686
625873 599092
580119 267066
55576 594837
715195 859561
706205 624272
645447 56339
147169 867274
75978 36322
671910 337929
107699 807520
150140 776623
514355 66857
742869 454844
887775 305516
713971 293286
654656 948590
890785 921180
126790 148414
612434 883320
741473 313604
973951 602542
777123 299788
775912 635997
654351 650055
503456 54074
124865 861821
40447 155817
161562 387054
84978 629127
166559 544213
697892 123869
644318 845095
657170 420639
553483 709400
910637 679522
809463 789687
760085 859175
89692 113672
375417 302880
696335 587186
527388 388010
627245 35346
377464 91237
856701 382389
967946 214242
820200 396242
803314 237153
526292 687257
732904 802719
352648 291654
355231 746633
298709 478992
585331 279305
450019 538760
652884 340130
804323 27133
638076 459082
340481 597168
532669 831670
321275 604908
151958 907201
306879 499275
299594 596311
572175 939214
323227 493759
565493 287371
697113 186744
289638 258546
678866 493597
411313 611273
358016 240080
242403 847627
895159 363748
692927 495356
747201 538549
678570 794749
695901 430067
964528 660293
976427 233424
253302 219461
820607 743913
775282 461641
821171 394669
793540 720052
733363 899490
52766 144650
305577 515039
524887 686383
409543 659534
39749 977152
287612 548057
671597 927382
622258 768826
708583 621567
315552 173180
742191 545695
377901 302584
757748 858023
748891 594915
585141 484959
252529 505951
789969 781304
729175 418092
520237 732506
938099 412554
668489 409692
215908 857605
702174 900230
284022 241138
586276 204652
622734 838389
764265 246776
390497 502539
703546 382834
88532 840403
174462 734223
261714 836530
790130 386587
877506 369920
794782 517343
145027 187751
691609 329241
295553 536161
228315 846820
608185 25691
29043 799514
725805 488882
444304 27388
893898 835974
882532 846393
625494 866291
808724 117398
405904 459734
527715 628881
138742 162686
585120 943036
50178 842824
273936 30899
382021 554870
305472 463543
747543 455954
848300 397936
345532 208584
53223 302250
784252 929266
916629 376926
659312 664683
622175 785015
808933 743267
894233 924415
244758 904476
904719 784489
39712 241271
53874 953639
399091 236443
594883 681315
898555 476632
762058 603185
774432 530308
98574 89637
939380 893918
917428 102797
175406 438731
919668 700422
707291 159826
270628 811507
966778 660637
747535 844951
750084 847652
527215 763712
58755 204249
784361 912896
434407 412776
369476 876153
199174 941188
95710 199878
828180 899466
802144 967099
892760 826321
33824 831792
918090 849643
332831 653302
30894 182848
217850 743188
363338 863378
41946 266606
112377 717764
469212 862436
91786 61597
495015 283375
227815 267666
370133 305683
562599 433203
414039 610306
653071 928412
606294 750388
743710 688699
285049 814408
115492 906908
777527 872749
84793 554071
861867 675555
802971 74377
567354 650529
179456 425490
208340 710083
505658 881397
871267 728268
757954 657191
246265 47040
142192 791230
495174 704531
168852 142474
355511 295165
544235 405676
309334 301793
99641 846736
694126 667541
218717 835367
228761 668810
445499 543060
66560 833438
213479 26992
173262 107440
395410 931680
740481 471967
368347 465432
739244 547676
73533 70737
288328 766798
609226 794214
696808 459743
860473 888637
847722 396780
769695 323194
243157 561100
916278 306266
598177 418223
885083 718906
785828 148907
509624 287631
674364 888964
763548 374973
730478 971007
89666 876146
932908 716652
789922 747670
615722 21264
812620 107854
416146 596156
903153 711483
177069 519446
848628 967107
454778 917757
354818 572366
445913 371587
41482 312277
630154 166055
123327 869250
119939 934737
79369 933774
273932 734593
519107 933392
335067 559164
515571 771929
207499 681880
60470 469995
931536 726404
639053 774190
256845 32125
771590 372887
790325 705378
123953 836165
744821 472987
389806 738077
85620 935855
976848 429691
288023 554598
550930 750399
914438 917304
74744 46848
393839 165909
763608 458060
304345 249951
149221 598662
21857 803440
141552 105868
875422 688761
344881 240157
521032 596119
480975 572622
745304 78469
465165 769521
749326 571527
354039 294265
766114 757601
868265 670147
52480 938874
479092 103506
701420 172841
842959 890073
102402 878320
887575 406272
652724 709954
100799 383573
363645 638990
966146 390532
751958 817829
217924 855548
182186 691776
176728 773572
876247 612005
40592 142503
622331 776119
195037 550178
785794 917326
294796 102848
340778 332514
525276 860096
204462 35260
605772 418938
523529 799752
236708 825190
151697 384389
833385 359967
920284 695636
742336 785412
772560 867276
516607 625374
700456 461794
718531 449567
114067 235098
306644 404568
646288 266046
99645 90143
584612 749171
259128 774638
887096 625531
132973 106890
401670 359160
912410 764360
336294 853633
307112 563814
472360 508563
802731 827692
688113 842456
853873 649993
387399 738030
134882 47660
750650 822960
669707 962996
530045 309722
205452 777535
226957 754109
22508 484703
687775 908497
210019 688204
756670 661649
742710 711281
598930 454115
223161 703527
201842 41364
249730 107802
549079 745861
298903 802431
195094 722060
385612 658192
199936 205816
205327 863959
773472 301837
708902 465747
109755 979602
130197 980082
806227 428089
667403 929958
408632 658144
37939 682264
466373 352348
246890 667151
918467 846799
125280 589487
688751 365610
93585 881611
197568 797060
283378 786534
703403 463955
163467 86472
25597 238834
246238 416360
58571 501058
827458 692864
436802 659902
671816 527477
279193 811405
135064 374592
137950 51247
722372 230011
424820 766222
952677 183568
581244 514589
364020 307294
394426 299725
454772 915435
311374 326189
339927 512893
613069 582924
802456 129233
51924 141969
234483 733431
244033 487240
952376 602962
173192 775721
555786 633028
98180 632234
254474 692297
774458 868983
382218 706481
632760 691180
717448 469803
157049 798574
797251 454619
309778 615917
505477 668005
228547 736862
379861 575190
292823 156913
575560 765777
753315 273563
896904 696468
290929 159589
674553 679481
600289 324747
607111 411810
726907 514712
671403 957478
615851 445054
524527 725118
230789 283115
896653 823741
406603 361859
182475 695312
250095 769201
353144 175667
708668 382741
332148 559573
759272 979564
617058 967649
241616 781372
483662 361150
892975 674947
350775 748345
228795 723473
225101 686715
448945 603895
740087 903084
260931 831168
731935 806396
443636 655236
127321 580444
832465 498183
587234 942142
719838 526106
205054 33624
763915 760918
765291 631769
610375 749993
55532 149633
907356 368682
538440 694967
738599 251557
174448 80139
47030 869440
752339 595194
308437 703044
47806 873467
522189 935189
744088 370959
224993 741560
240478 777521
687286 936748
375911 157008
390619 325969
689327 266259
320551 640569
381993 309658
725326 522046
735186 483404
144012 668482
175419 431534
251473 23085
193057 548558
80280 273785
649884 309882
828080 430378
36511 264143
573827 956141
199411 470081
585263 791533
766406 847775
669594 423549
335672 857682
405153 491529
837818 332203
129896 967846
411970 337640
924128 125216
27869 833847
755782 91325
506980 86310
351328 224572
770364 377187
856816 395684
353583 223620
54718 172169
66713 534338
514500 440028
609494 427792
845502 889871
615189 777809
216735 74654
95482 823104
593347 411596
571501 898372
591317 178906
301373 541287
469154 262215
69298 959953
522339 174303
442250 34868
54736 892240
138768 755989
937964 892582
553095 818878
763655 908527
93894 880113
466638 595958
107963 119911
392675 201181
884343 844355
867968 690733
367044 732827
317490 519582
708434 775167
520448 587952
219785 672439
627360 955781
204740 697302
448853 373940
835131 377584
979941 696947
606841 792639
869014 315253
933740 141447
796617 90371
921233 685918
940132 724826
737969 491607
231414 138558
511872 54622
636211 551588
765870 953073
708672 895812
353355 243142
253351 23131
48762 315653
716912 410925
786252 727093
871086 370708
250633 838450
800888 73933
745734 470429
551749 820815
652685 704891
257956 782655
359373 360762
890237 699822
524439 539396
222668 750249
357597 659310
283447 190503
231175 511421
498637 684003
624427 696633
405423 236897
218025 74340
136101 564446
257741 563827
213342 778714
610946 496208
227943 687526
818636 799015
227793 506964
368320 595343
867054 668782
733196 484610
373361 457295
385777 210230
174099 733809
172665 150873
324099 859295
719331 514224
434449 66064
610572 414365
934875 312126
805746 436929
765485 580387
429743 255177
341350 629951
149312 706629
34908 816407
762958 908755
53464 534354
367211 659639
454360 51101
594145 359200
490276 96469
617850 876717
821142 331197
305875 474352
67193 908440
103495 225190
664287 661056
417947 603886
777772 976839
560561 733893
886169 664721
602917 958905
293120 93211
46344 535577
779761 926902
153752 62724
26881 859800
490734 334571
756397 425293
720268 424887
554102 299918
897865 725572
684142 798757
86105 870089
670199 938767
24016 238909
312344 186841
623071 787077
893336 673235
175278 767833
772565 531962
605888 608200
844449 343092
558519 893045
536253 513381
847521 660286
514446 668148
860661 484904
367846 920690
488561 753057
671880 952607
560133 754022
446734 35627
604642 672872
295204 230980
324533 156910
142355 798975
47097 863405
540830 791020
945331 629320
741965 755552
593546 350712
932661 395197
220483 203247
393522 273546
197729 747453
786404 546413
798833 529274
157186 890274
275817 85741
83749 827854
582705 484346
590688 350499
394113 198284
370039 595891
817365 612186
659594 499335
953209 732106
176358 758370
360721 593575
682991 719861
495865 52163
800671 519204
19235 790612
567159 919356
374018 314898
471976 334448
879437 361890
324292 487363
345384 331145
376257 910911
669684 873090
326021 610225
735504 828190
413648 333009
207521 814844
136374 652874
630591 335299
104250 770359
777244 548928
646030 924131
789141 414700
73128 773242
486967 720608
338169 334493
240297 849756
394085 186205
59437 426701
929344 399808
45570 854512
723338 106888
301530 274902
486185 849907
56884 852080
84462 857862
439943 835861
182649 952898
605603 478966
44553 958226
487224 509157
62869 859303
792609 426799
651446 498042
318759 523192
735750 760205
432444 260058
70271 948872
941497 265461
975325 518876
689428 579634
628669 333793
246322 862407
612682 848802
766992 729394
774558 377585
665133 966408
141137 713235
61447 897847
261115 189448
796533 525718
786128 301181
121634 57709
676943 553815
762835 272411
749327 698755
685882 338227
791618 953409
827926 733030
745259 466693
720503 970248
121762 401113
955998 339217
406612 311189
729726 564987
517906 290191
27700 880643
524911 589802
370538 607435
367199 879736
583492 748088
334156 326445
333170 874044
615352 859913
838629 335608
930460 885931
494882 878182
853385 632195
393821 292576
664930 699954
611660 426894
954943 673382
43128 240684
757782 681542
831724 419900
154278 178922
763779 353269
158699 488226
947688 685137
761255 253689
628880 589879
337231 929809
267510 455949
750096 827242
85747 105380
100401 974343
163601 753458
393103 620395
962763 609407
561754 736128
298794 527955
707410 766884
443778 288323
306498 189792
563172 435434
221924 852709
599119 414666
854676 294788
890341 840324
164755 637823
922655 917804
63591 470155
543063 402305
370266 683065
468614 589686
422561 304032
154916 197675
520058 683900
253260 263755
777464 657025
451298 191369
963226 415557
325182 610041
344356 608670
166423 594991
828349 669144
918123 850387
314810 195989
692506 774896
191678 752890
366955 309145
304247 517350
790382 519100
250165 674263
523834 362997
644919 262646
954422 624922
51001 834457
882762 705555
767006 35789
517327 310899
779990 619541
679609 324440
67185 60806
811908 579290
94793 467348
162608 860856
801629 788768
975541 402873
94488 151722
456175 543176
471807 908550
902439 710201
658280 977781
255169 248422
752156 824919
279194 429034
178279 724367
750837 867028
615249 908825
974196 496654
776399 269673
445959 20734
665487 575230
725790 889109
562509 910439
146969 697170
267731 797133
120141 765239
801947 440701
218060 696844
278474 180330
41820 967738
607854 427343
627990 608540
792870 90705
489780 248577
801426 712348
298657 135366
871609 649107
317933 309878
76269 133353
566019 189144
280044 761442
410513 252284
674289 698730
323606 271690
252064 497660
105709 902998
269344 552024
48849 871089
379801 278485
736933 807061
33424 866049
607301 55775
637121 542155
215845 836191
340729 331642
261133 514248
246626 643905
287810 580119
110191 889859
600434 41575
696214 193732
672635 338674
745586 786922
613618 443000
204654 762165
725355 233028
901575 621693
806656 542818
471217 563000
815315 799494
604649 959783
39439 437943
257599 784233
279327 722883
102370 215106
62231 458226
710772 394936
542068 745978
552501 934321
325190 268098
691816 405703
123155 949358
57974 884115
242208 204073
300136 471458
83587 527530
266227 200916
128356 978174
739763 477816
328382 188038
834309 241193
372165 738425
250717 211444
191628 544615
689823 625959
797946 782741
959960 656018
284745 577844
98630 333790
331764 599645
31256 565124
935004 247099
37556 680513
244744 560399
740075 457872
626343 57696
580361 324939
63205 215097
302198 928370
590921 425800
220792 918531
402148 563055
468860 333541
114293 33878
650879 661192
154251 959429
137300 806844
598646 414968
265786 913031
315588 393528
933475 385284
829435 945514
530122 291619
941213 895804
505228 725925
891143 937671
863564 71012
812509 676846
288522 545441
328684 449915
761427 564619
23401 180597
831000 429814
65669 74479
382734 823884
621684 681547
626210 562210
279607 729358
720055 856550
248527 478079
331078 872369
65179 815893
491194 315778
252719 431665
887543 913392
728578 429341
219594 720772
796891 971615
513760 651266
534123 591101
727351 495418
386492 655447
392584 181829
352058 380641
663430 974506
906675 407212
322610 849984
434118 62207
210325 28250
730915 400628
262617 137046
221349 210246
434392 531445
840166 685740
210532 457354
48210 91840
338085 333969
942944 562249
607731 612041
133076 959303
101997 173475
194348 228692
262354 832626
629828 693505
384931 276033
778910 741760
669467 226722
619369 588234
770851 865507
787847 284078
251114 419018
765502 909426
447506 23438
728313 430645
679267 972133
455042 357904
761342 354514
153243 919167
335884 603385
776036 282965
153011 846258
223986 199032
189284 639597
861952 685547
869876 869303
888534 674591
701493 810715
39955 140644
678655 428833
766452 836788
768834 321732
412677 235693
892192 922671
516474 696787
679520 906897
717713 130001
106472 781963
727727 528383
534541 677923
325911 858171
878435 670384
942895 703318
596524 762688
519011 418608
527192 546436
796162 427097
798767 62418
911857 328985
723482 584933
101128 210125
670931 624040
294516 580797
230448 43650
417487 667053
721664 449752
761463 909186
381139 233136
287863 782855
665439 465172
441559 205289
937562 909068
793582 142303
619583 874911
883533 910856
744911 845300
31661 156231
623680 913603
594292 944896
422623 550883
501737 881117
811622 528361
225377 44285
295209 790334
188681 767438
348444 236944
236755 724867
375621 282444
508923 712452
302701 605237
313806 548346
489980 364976
212688 685656
802213 789689
268909 234065
607938 411448
326473 274706
710480 864400
202300 716515
850286 708127
731341 453103
629990 607518
667911 961350
803312 786738
89504 853052
355780 223821
274920 312300
167367 872491
369634 930315
193471 195067
565043 491834
933937 405208
725754 834536
284946 470441
35656 768531
627802 561120
847420 706455
756050 537149
74356 38612
856168 646846
256618 449618
115637 908258
792200 762359
269438 273568
799198 970679
210901 859663
21646 343322
404886 255002
628030 931216
869956 487119
758994 625900
391495 226065
72469 545585
151400 688851
19207 341212
437672 559530
687675 579428
63994 531221
571774 217636
393199 176076
240786 763936
375905 915658
302706 538876
794032 777316
103723 548056
767675 314199
307680 159162
727353 433948
524688 428818
190824 90605
613019 450069
619682 423661
951936 642396
207455 717572
424046 908401
288686 467770
454643 628208
285261 806827
672377 925849
798540 972892
25663 869590
259948 824947
361615 262147
652419 781608
237959 836087
335634 873548
725771 759290
514850 331646
589275 522450
943223 695438
610213 600642
157897 853929
535316 780817
564110 874336
379935 310679
479716 595579
324470 480301
799290 533861
317933 601678
949668 548783
171171 34772
153716 526282
46432 183436
596822 205796
794595 791486
122275 946321
381974 148051
508109 594346
305923 193895
274802 189430
57036 867073
259808 441116
264309 828524
727216 599788
873595 645763
820926 669268
793582 302685
41300 906640
126504 868457
214210 623669
335475 460521
950090 691017
515380 617737
671164 672621
542881 679135
52115 883851
132604 593798
393862 277526
170267 183260
167220 766076
695703 287703
607592 516357
314470 188074
188282 769802
658871 544625
791622 760258
557267 44364
792553 518141
96345 328215
653771 654611
616242 404082
694074 487356
222341 590189
226619 199276
691182 905746
381544 935355
809301 647568
271732 819430
376777 165425
359172 551524
351734 658638
763929 590022
312713 556268
148515 885110
753277 820045
78426 84252
456686 558401
360876 499658
829840 500497
320988 276494
249574 816890
806193 742620
219903 173704
258889 210251
562210 429015
59671 247153
663784 584641
360059 938791
531135 552306
347035 289893
760578 972879
662744 587773
655193 649026
758972 724292
281595 575409
932616 313031
392024 281867
469698 586242
20332 80181
553206 480389
561524 701733
939001 624607
798838 281280
676340 971310
97187 500499
279939 717159
62568 504263
558242 343684
973904 681289
688191 974195
819395 656491
807036 965436
957877 618438
352266 941757
831414 476839
42591 143912
715697 468460
317686 641727
426281 308839
101852 594368
56949 868883
347824 326129
954828 622294
146618 58208
712329 581606
757839 978799
793415 417126
328762 608631
635350 45866
826629 436344
976475 306859
258637 36890
920069 675153
689106 721249
348049 509364
952886 733924
633710 687576
269070 557542
563881 805090
428820 571573
29774 887350
377995 86224
973900 338653
562232 637696
277605 568198
357063 215909
687410 705200
293861 281665
122086 873313
241901 880040
76521 138384
45275 264421
524685 341512
784299 744886
299520 472312
749146 541730
804589 241774
167352 741935
699658 839741
88805 877482
858364 101297
101623 565890
332898 656845
236861 449290
166854 742701
477970 358536
879306 838362
482805 597008
760004 978433
954270 696659
559666 377160
192056 552389
30441 283678
522651 297502
481693 41909
820443 660593
810121 75277
914371 604766
381976 602448
81393 73276
33236 956575
123865 100864
920002 830431
48488 969724
371611 686006
76639 80811
80870 934844
168807 777256
890309 725197
235151 629061
756941 262493
45425 279381
634163 43643
45260 873252
328207 174080
907662 675916
729761 511022
619265 159073
693961 140956
53009 906551
669573 872170
941917 712139
201695 881375
273457 51718
723934 503201
858253 732097
31579 131391
58665 910875
793553 775863
851215 393321
825555 728969
302596 278173
101513 950842
339181 281770
618226 931150
22326 827908
163794 876915
944286 686265
368944 869194
264534 273294
149121 165469
235734 280621
228963 275101
743792 790332
36701 805751
257653 768675
696181 840550
874023 377547
245170 789452
126645 953000
929621 313007
904288 331140
235353 826388
652472 707668
871043 867915
424660 790003
250704 488892
251853 813667
812175 801072
29246 272315
561267 883642
811729 318178
624438 337466
122633 828509
242163 471450
844027 722475
945489 693367
322423 542251
764775 390678
618067 909840
643657 353130
652946 711879
62922 242511
68121 922975
177369 770446
469412 265104
666754 513421
256641 834354
150411 917851
176199 697405
373069 409824
99198 160991
935479 696715
632939 157703
368884 684293
60221 915930
682235 335137
458815 612106
375265 307080
368637 291407
612391 965097
117096 830002
357839 935362
207281 926110
818800 654249
21905 667966
926411 883912
260740 449510
403693 461076
780210 877774
973253 660421
866130 875381
223777 621357
963348 350297
329955 545426
612132 780914
306666 514407
662305 656179
845344 320364
422976 900409
342921 548068
153667 868937
133632 531484
126320 572601
107056 961346
372272 204361
43305 806977
124099 592232
893872 620865
649272 310668
671449 955836
352531 938170
431874 62751
225601 892803
680872 972546
504912 684544
57158 817963
753434 760888
110504 888250
152542 568625
38881 834401
811574 400734
191511 682541
369127 281902
421801 887332
844797 405236
700539 775545
199947 53304
253617 836103
573203 427788
640079 553203
624322 789192
865548 69469
622402 763708
614414 582845
130427 573179
772254 333220
87919 883396
697342 506543
227278 33773
239054 298729
657883 251228
716846 111553
839081 657921
475566 203059
675282 920940
798736 532317
98998 275465
846718 460595
926216 670943
271665 89685
663959 932534
927331 714515
50795 481186
307958 620513
386932 275381
158157 770851
652505 604902
464010 588572
925073 700359
679780 834485
104399 263750
305124 584895
743685 815078
128967 864620
97612 280490
843472 265422
755179 860823
790988 655024
454639 940639
673621 347581
608044 823509
535721 219331
447949 378878
392404 595442
536154 765350
409536 894136
723898 853505
91170 64220
793710 517543
925944 705787
758612 978354
835901 890720
802397 232453
729113 421298
779490 525316
928504 376768
676401 268054
288805 580926
392797 678482
519275 891041
925225 581283
627791 953759
643367 602630
115515 721557
912022 606560
55893 515468
221399 37105
125469 626213
301680 563028
524403 412413
889132 914265
787423 635651
526225 445984
381066 753485
643402 422734
865360 381651
237763 688716
21779 529200
170694 80273
331213 652154
523398 757308
928802 709830
755600 785247
126206 857686
729596 93523
107578 345380
223008 853627
409164 550844
158661 855582
720580 923400
822888 798322
200811 881813
753473 410139
270229 48102
634765 852003
46985 857854
307103 426654
349302 169665
354122 216384
695460 595389
268621 824378
119574 388227
742777 850057
755041 667075
828923 347645
250395 49570
474115 582448
608296 356765
870880 326423
122552 455584
79242 830617
36954 767795
507184 739866
754655 621445
781371 151485
641112 274878
25873 852950
374261 497084
870699 615108
168217 758152
910865 671984
627475 718383
702084 754740
300859 597456
326415 329069
749536 603934
481157 658768
598605 412769
595282 32323
779242 782404
19741 181003
807085 280804
500186 721681
784791 254389
39535 311021
60467 600449
553431 425495
362573 198699
45947 135982
139545 478240
765968 729364
757648 787222
608741 902527
699059 308984
814485 799171
667239 963225
810160 431197
185659 743747
386536 25521
641929 101792
390238 620030
519553 891002
892305 307406
438136 401073
695509 297410
622159 717371
652997 474975
594919 259863
870609 710833
46736 861701
447375 375713
469282 171665
723926 491635
313973 627971
745871 469149
820597 272538
552442 824316
98548 278006
155147 900184
953240 634167
449196 614347
448915 605139
437170 73165
335218 214443
281410 744267
915660 702557
426099 793237
23075 835633
539061 788198
27501 835731
781243 656835
517404 145389
826378 343199
47007 879117
405785 416274
273079 190110
173061 152420
650509 780564
467355 560537
307169 155069
417340 583757
729520 917614
655112 947999
750275 606073
913417 459212
448026 32591
41410 65875
492990 366280
46048 878046
101402 463235
842184 487993
577593 308253
205963 484216
237531 40591
285892 813563
53134 85810
344361 315877
682747 579994
670979 829167
809507 512085
368202 304643
534525 260487
164431 877405
230762 724449
317109 309271
367721 676872
98848 906335
408230 287785
811170 112681
878879 377777
718772 389845
788222 916919
946023 617030
89629 871995
748593 841146
799571 786192
855223 931664
960659 541061
498496 933286
801616 786511
225204 706235
405926 749140
186947 613638
275042 77594
720401 422391
583074 979254
481888 658304
177946 204343
60569 117214
960120 281544
232470 136796
774722 737619
64032 231572
245217 845408
817352 649472
164528 805378
129881 857569
502379 743743
172293 733154
541944 698183
547186 355264
170394 461255
408830 776068
517724 42955
722981 498819
640514 788051
826601 425523
274810 131911
116334 127400
488432 71978
242166 503479
669472 872514
876063 708049
140797 533838
543431 607734
252968 63525
587660 308691
358160 227470
537179 594516
352395 591976
406971 515973
339326 600341
915106 735962
776081 151980
398107 465609
884241 660438
175458 542088
35010 903037
391540 336992
667314 699925
215180 66169
374381 624958
36482 965068
789831 724181
824096 668887
798540 754771
823950 361066
572529 654424
653251 328510
587983 484706
793468 547697
211940 53916
37605 496706
887126 708227
939953 894488
810986 788351
160924 619823
228473 271465
191701 638375
162912 542088
721340 325651
349464 213349
37693 893454
655935 936085
707825 107282
593868 680490
712503 265575
303913 281901
679442 271480
71011 840471
868030 388996
303485 287049
614165 345091
126079 852093
170136 673888
280346 301937
702334 973211
681699 915467
29056 863428
676794 902090
32841 782365
149682 890709
783346 150482
793800 438356
435268 55361
508676 517680
398451 238002
529549 203565
61577 968237
785828 921134
634428 541425
748324 874219
212648 870080
918514 879749
486976 782706
591727 595882
198118 558725
545274 624374
131612 589786
654563 617946
742171 978557
305766 701361
728669 486337
277448 818423
40063 904800
223496 162674
127618 865920
393399 553945
747926 598135
306649 519652
390130 560653
187592 884379
382743 601521
851502 668718
255484 454011
528227 386569
886639 937379
589744 772224
405800 426740
52343 257219
799211 472751
589582 821337
239318 823430
269314 795936
256599 257456
338927 529691
231617 281816
528935 189144
53854 327496
825357 233389
164425 921668
100934 343006
840078 282238
359862 628388
407497 352771
178489 773699
485228 851501
722032 694077
144642 831854
91298 117477
47960 945698
315697 560434
83411 592581
21341 245776
374666 227349
340859 273706
273943 762582
337822 645995
143616 377772
558618 697940
32948 271265
384485 957952
341702 520257
62387 827259
609631 773471
538494 367446
978965 339831
228729 22381
128921 687361
276807 249190
621473 765881
712221 397310
480897 696869
751410 428018
125574 695724
29965 562829
29055 851486
69871 918633
766219 950303
482253 388260
963645 381132
934958 889104
952665 601094
892728 804255
249041 735038
38739 268579
400217 464181
772498 600030
440825 79236
606500 328923
444677 673982
236006 23265
165159 701863
617902 440721
288814 565355
199081 882664
60055 315186
862561 692275
738167 729105
21185 153431
926177 371436
227013 681642
785971 399847
773784 376041
861568 295865
260581 665224
686798 878643
829306 726298
50644 954796
50376 873092
529890 550466
611592 481081
882354 846396
158552 490747
761446 571610
347939 312328
77887 95185
298619 474061
279700 658033
473971 266434
658778 978196
734199 972554
153494 847109
731936 850946
764233 595704
842702 472867
415722 309181
840658 734274
697437 840088
130962 834862
640845 552133
75652 95758
66898 640377
543339 916426
785285 397548
730571 916672
351594 382269
288866 246146
384549 549876
854360 382177
211102 655604
272714 855910
515774 622654
627883 335315
149361 913425
843314 735011
594856 428844
39095 857273
509840 683979
356398 940159
44837 137503
188393 884383
143553 865931
446903 87231
907726 466364
827153 802510
19896 901099
142333 793300
279525 734788
220736 749150
688681 707507
465639 45419
87722 863433
367786 585775
64939 76276
467426 930469
848271 629001
532508 287755
642811 694945
696663 511196
298500 282467
824633 895211
523394 762752
256183 546950
484813 323149
827533 649579
943636 620902
669583 870720
487103 935530
516192 143882
294400 563139
217337 145369
243778 855156
248501 523326
258641 779758
849733 707306
218579 668998
516703 667074
705817 548052
68905 168710
231474 724442
645465 564391
243647 543823
353944 298619
395125 676123
527448 740374
738941 796831
774239 301781
830028 413572
234633 720740
141863 668045
869311 822484
959675 659659
917388 624445
260899 765271
325783 377132
170360 411615
735876 972863
23407 972289
218090 720646
208473 99115
748398 811495
121328 971648
730507 906001
151623 196493
415041 654441
694215 738476
234318 281547
44121 802497
790473 742337
151323 924797
821523 97685
652844 647770
88155 837945
341132 594136
150050 838836
759491 531471
623551 208183
43214 872976
627765 235179
724100 378801
810164 416553
47864 117987
836935 493212
337196 580992
726202 379944
152049 61688
555815 430006
164434 479036
276395 301115
658222 843244
745831 256873
386263 918392
198870 758453
122878 840500
515867 226330
696204 266079
243453 434105
27494 239512
182257 413186
373577 708578
802168 965260
688409 92614
561745 807565
302095 601361
740179 815852
23982 970627
104639 830005
45231 947017
245817 264237
546876 567505
406133 429572
146621 707417
540196 572982
886721 673239
889363 691856
265246 433212
141611 591411
240474 887409
384168 236892
585761 924738
374532 742338
326929 614428
333577 639198
32215 491097
693557 816567
112833 965585
339665 195923
712641 836212
542453 604310
962884 721544
464465 425553
138916 668419
923058 362958
249051 502284
441369 899143
794699 970523
195173 562894
59504 316312
760384 650114
797463 695603
767101 157779
747982 628954
173634 466657
222321 581672
281884 760705
901452 365060
526758 453534
28411 530411
138806 864214
839900 248747
53288 935957
708037 815696
467546 575100
701311 376247
31794 832703
595625 390882
893201 336759
127177 578949
315813 631876
275299 571802
600467 166505
185978 31617
650266 636012
354942 251702
168525 921656
226744 262107
512798 910037
685818 680922
401576 627993
566958 648561
401317 291371
129164 804350
587694 715084
380746 290790
773181 325182
115829 236829
771590 291709
658321 340319
657371 324738
887915 670633
86665 832762
477806 910310
545335 830305
260788 795924
450296 773681
283743 175636
257673 35335
841759 664431
34386 904957
166331 217772
612971 261801
660181 331113
544155 439858
765056 759351
289629 187067
374355 306360
288435 563187
869598 639161
734883 812122
627996 599840
886882 832330
698453 456626
834175 697341
750501 700355
652436 971724
400239 550589
261660 576137
601143 395258
586810 29293
760459 275110
725661 509367
923351 386802
214958 727016
202411 45515
391061 260425
57837 968454
289640 75644
462639 596336
312163 928180
762147 250144
595659 445773
119193 240819
807877 962558
196702 192832
313222 305222
782804 625926
325169 253735
206884 391562
786295 924270
47704 886829
631152 678875
402364 529943
626262 864852
428883 302250
55734 313382
722286 763156
808789 300986
300040 300532
541551 734296
147121 878711
741851 459335
705349 868665
696434 816228
160770 385530
538482 249873
264794 55030
729420 581168
239074 571058
377767 197290
39098 934795
823657 818759
388987 274905
662752 861216
918698 427548
728087 851198
62550 368961
230730 907790
22465 238931
559983 702993
936140 291520
361222 859049
649779 817202
222605 850986
691256 334150
287185 783534
481598 596547
287484 649305
272052 794402
152209 539617
941112 148818
703761 264192
324317 165385
816615 638053
618655 542993
254709 233201
976600 274228
484282 911032
891517 827510
801441 485348
534485 467817
338348 746181
112054 956512
79334 851823
604216 769697
800270 784770
190551 727897
460901 71152
574216 877599
502818 365614
35418 25507
91851 52609
323384 548829
950502 176321
593739 389855
655725 629284
568270 335452
572708 306630
288032 805478
307116 281170
622180 255194
373986 607398
641285 103749
723131 499489
620390 188296
698800 556101
300755 524970
774586 406475
932422 418326
71472 927149
166846 878321
676959 722510
255009 274763
601845 431349
398837 220821
614144 851309
335596 544210
918526 827444
573202 41973
639548 347853
639903 129014
357958 248476
653808 951691
243411 444021
329278 371910
641788 938475
499269 866129
803887 34503
520362 517593
285685 68116
795019 426893
593530 926504
875778 81620
918036 592190
135956 592586
308975 229330
65269 958983
60827 530772
120004 381327
594879 352717
759868 974001
52876 339003
170454 813548
553137 381297
395028 492421
108750 231915
242919 546932
50536 197573
104417 637378
652919 696811
30379 26919
148804 59958
957742 699238
792719 740917
851913 309999
369389 724524
410058 456984
41246 940037
76847 527675
600233 382681
888334 484888
70776 67455
385004 154951
627307 926223
206703 760842
106113 614664
382536 918126
609384 329824
25869 952193
444113 28359
142824 520991
60659 392918
112913 137154
600696 705657
864756 694656
650036 469393
221084 185486
487885 343369
84106 942146
229012 909244
244309 845477
609168 883958
369278 186207
512424 775812
571967 923336
574920 550415
312571 167259
935827 430828
386308 424285
789774 664521
411887 894988
262228 830741
687346 839711
747683 373104
425269 63007
514292 515909
266074 748654
597101 441042
743685 80496
392284 350842
92255 262704
537397 694985
817219 739340
552929 750955
119311 390178
272946 235155
727645 604485
669406 871799
281834 475849
564618 730609
895690 663058
527440 673299
651606 823340
767075 862497
565096 44831
723940 590875
360756 297988
615499 931314
512221 734804
192420 559876
784379 618514
948537 718553
938374 728163
321194 315458
734663 455145
555007 481975
146687 344504
97303 816413
351365 223868
723283 398342
785921 390988
921892 861304
43849 824829
245506 410615
413480 363204
887347 603777
689491 224468
668802 333861
649367 957161
282780 447770
77488 972650
738439 772628
628338 357209
368775 200098
127221 803664
81028 911588
145767 516584
820923 612981
306507 869823
297906 584610
930978 230842
653453 348913
920661 384045
741900 460262
819156 614641
142104 553964
194243 53861
929158 439510
571488 659288
932100 397838
764711 360842
281195 423249
266300 228375
133920 688458
843636 663050
30742 675542
173529 426564
151433 959627
625483 179270
365854 220603
226065 685450
332790 328201
568441 972551
461731 344696
246913 755770
145919 168007
622229 912872
99104 896880
270551 458411
286351 578566
264111 749963
82677 868748
51550 123190
609053 602034
337183 333282
631794 948134
775663 394812
706872 449180
484638 686306
33437 856968
672761 816311
96943 903448
46705 925302
726551 450487
290722 280164
726008 524031
265531 823902
339183 333103
350381 290200
381738 210403
312199 540245
601854 813469
647928 970186
362770 593397
963659 166490
222610 206781
161678 594622
814977 311647
818184 397121
232017 842783
252389 54655
740993 477099
757929 778113
447869 377579
838711 702546
745690 637094
358207 251047
596169 442446
869015 870913
132811 94885
273656 816274
856278 636071
707815 448904
330172 444932
30085 793649
373031 554724
336771 253146
677527 339151
636602 460483
668840 776263
122566 38997
607743 884029
248863 197845
64732 811494
456986 340696
131674 147688
447327 190201
142833 971845
101817 969649
610762 929870
858734 678252
911260 771301
56040 904892
225858 260603
387425 616966
236318 566225
552101 348309
141990 802070
817623 601739
886189 812043
108826 640932
870314 692280
593509 413127
337575 634258
476086 580103
291886 480965
250786 509280
591738 424793
878014 695153
242528 496963
91070 489623
391507 284468
786275 402423
22039 670626
611130 685139
585085 963857
744078 671299
439718 44132
441664 394447
800597 376732
474804 268769
801462 467894
772684 636268
790411 259997
752960 425284
749968 551888
354755 617925
109547 895733
246649 676897
131690 959378
284200 690491
89829 851700
355906 300499
485050 218014
48539 847818
130366 976272
569841 556560
808405 253303
307087 187859
380817 701401
244620 35677
238451 475470
548361 413046
178853 90970
572362 881663
77055 591113
494379 749933
240112 728404
367423 333410
671723 575918
195742 633978
461886 272657
575724 272794
200257 34359
628474 253957
758865 856257
870326 387367
746781 887723
70927 31776
657869 855090
374738 689610
305044 258063
74851 833376
978745 369688
536465 241238
613227 595119
216165 852064
58763 813716
76340 360432
691185 553306
960562 701071
365996 310336
326510 199979
522627 670498
202490 629666
448554 610926
294613 928024
834873 370120
21644 978984
125978 834574
675505 681832
875708 639826
221422 166462
606116 356919
231267 829379
34959 239697
106358 368744
430269 804118
785789 913451
374707 194485
757495 852554
353894 333538
369093 870043
859043 382088
798321 500077
415099 926880
42038 857588
302910 254454
427246 433115
341956 931798
833096 724958
134311 437755
553382 932821
575925 655640
358779 626512
698979 499560
405730 418881
303539 583935
886895 363113
397113 740575
586317 289707
551936 44064
251595 425442
931741 401910
570549 501082
33429 960381
817917 767739
764385 405946
369992 265805
97658 818924
193994 692723
25816 786431
143994 563457
282374 865140
339217 873271
372056 876066
298540 596280
200513 479735
480471 576291
961523 644196
771214 327408
720352 427006
185101 518384
182932 747947
832061 416476
589747 635207
974567 365839
443631 328466
155233 547718
253628 694692
518320 63525
801378 966176
456145 277691
783075 656466
180531 953256
66646 959245
883190 705368
536791 562320
353766 386951
817399 912031
369258 256959
133242 435584
790778 491649
235129 754839
505094 777580
843688 620018
897637 364618
896750 407545
805898 268074
601763 671608
642190 199769
927879 624890
33417 779511
965407 719404
394790 549177
30046 300766
237537 489959
788376 379700
863784 912653
743127 465315
473983 860906
193475 213744
683126 367739
657273 940663
292887 458667
22664 871683
362302 180701
190718 789604
395110 354824
57634 596180
815373 536693
95052 885854
77359 298722
594325 422091
216405 142910
504891 364462
789267 519434
796707 468255
112538 391535
643866 777275
184705 69325
333563 632828
732854 580099
177435 694683
433767 60368
970110 362293
621040 836543
946513 904442
794169 927393
789274 388651
741618 457600
728277 581829
595932 762140
306426 632736
969831 462986
350353 256707
488064 702843
926957 916284
328388 866575
557627 704755
178566 694377
609144 674747
347978 913328
602285 426250
573244 602957
721956 476889
195972 119874
63768 958480
580019 841471
760836 642185
412895 368684
737036 322737
906586 394233
632885 593871
910332 681862
192276 791857
638384 345646
437178 831991
596246 952642
98972 515310
932153 726889
691949 163426
495145 869237
391365 265795
585952 269125
852962 317499
195619 210729
693660 323571
645638 696969
96743 932359
764981 586094
177413 542297
392178 299982
232563 284438
949527 725076
308074 512545
831370 652245
313087 253255
746581 730978
913746 342411
372721 141635
316894 390670
454228 358798
180510 166706
626268 684201
759170 912292
892910 699048
217755 34337
750315 907116
622048 697976
162329 956652
77916 964848
51442 868743
75611 26089
211419 690570
324667 473986
682558 334301
778751 874399
773097 553100
431396 427017
611195 390777
21027 873448
113974 935521
835199 372464
47116 865155
742184 506995
685435 818142
921150 701712
789034 749849
798753 693620
42848 137119
409519 562465
786197 414701
379949 54932
34747 800522
973982 436473
451662 166485
515407 787616
286178 806607
702160 838844
364085 300109
979885 243143
107417 134893
150381 825278
145648 967428
606687 520075
42833 56377
167792 114993
581847 674848
97693 204843
706006 386880
304819 539832
377333 885013
37749 856993
224845 492504
359183 870085
703528 627835
660636 921737
821017 639103
156463 39291
182596 523123
175542 447784
769992 371971
650338 970950
530157 743578
416595 654912
318290 172068
243773 409107
913794 672161
128570 146178
379926 901787
363970 890613
83472 935805
128596 946866
785767 938843
381213 494970
622897 57661
312488 612485
51706 912318
859498 617739
445099 387924
631212 413742
141875 792441
205543 584199
714855 723314
788801 741567
329165 754315
640578 240570
949394 707530
171356 777209
27562 541072
942316 557751
923645 646378
219990 622630
553456 959890
721666 481514
807709 799008
208267 867995
258830 524794
901421 589537
61143 312865
670670 775807
353964 300260
788019 739657
381138 821801
688681 935536
526496 439944
690667 357754
740663 475313
436082 902484
742089 480727
208227 738680
855399 618827
280338 560500
327397 617796
781377 551479
612442 287008
923705 624689
610620 820872
942657 554208
186141 224670
835910 387091
58100 127632
614842 872736
825756 817919
49956 869503
233843 598966
917978 427986
293574 784633
693556 142918
36304 155513
38104 764851
469029 587918
739727 546760
650169 68183
869373 870140
942630 626133
94450 260856
611935 905261
451218 363916
27595 411904
869363 710090
91493 895482
50595 917224
58150 908653
168558 459634
835891 619284
98589 869843
350111 505623
967435 392212
357809 901470
615545 773785
560717 915471
333653 551854
574950 798866
463763 270677
640476 678813
953282 632953
477518 694690
219638 854854
536628 576552
48280 875373
769554 325230
195359 691170
843887 650674
54390 817817
928487 460909
121975 945015
38673 830449
303456 602062
573349 838932
229020 859794
514335 879455
599348 483408
248309 813592
598439 884776
324845 258736
298459 270549
355792 249963
819074 737743
156726 891216
658814 540286
863002 882922
832867 418086
170154 408647
228450 398965
361236 348799
593747 940444
244869 787737
530533 381997
180116 542556
210664 654126
207601 815892
472570 563934
554454 422292
342047 659842
421388 241308
186517 694554
389735 621939
245789 110627
268062 543861
541549 370186
134971 571389
388952 685829
818594 280405
557274 744085
779044 520079
264678 428279
35333 67627
801577 477910
281829 572400
122508 872840
297709 580011
765526 400224
392664 503659
719321 724581
838365 664567
752581 760990
323407 764845
848030 685791
867810 897218
51736 257916
111348 830687
801581 474425
968668 686897
807883 964989
343115 260974
469772 354867
33995 492949
285372 656851
180481 421705
40218 684610
550418 248902
45156 819089
942412 556094
912397 372707
847034 468631
254663 672931
567318 873582
835204 367843
109090 256731
479469 396933
881739 90684
60508 850960
368129 608976
574633 965527
841154 474916
944118 565867
868418 871588
26234 84093
409829 452481
216047 727556
713001 328925
808333 386268
445798 22593
48235 778654
45459 903944
223640 749187
113816 639588
314257 527997
188701 534906
696116 352648
49089 881000
624418 177010
66284 835457
892525 702077
167163 867409
209579 455795
210701 214859
863655 722597
61262 917867
351107 220618
601938 355864
61472 896461
238432 556239
265945 247027
198134 53244
486152 455042
115621 720863
375669 606185
160305 745759
97045 628232
259070 453708
552632 957638
482502 729235
976518 431136
636145 943466
672574 954809
912395 432957
358818 627178
860998 710685
758142 855174
842491 255540
132305 855757
755217 405399
839402 277707
215925 71382
605937 684966
363249 305563
809662 115025
831087 419676
416820 325697
295761 267565
935001 722726
293563 449713
622144 762178
518281 706892
896340 408595
28683 815520
242442 680057
733078 394709
275343 310088
54654 123554
21275 974508
909552 370153
189226 77085
54658 904689
61943 526208
141747 655722
682404 906185
209284 837689
137633 833862
238411 23791
353911 733883
328473 625758
927677 394928
71466 23527
929949 727064
741151 470730
302233 409455
51198 149203
829758 280008
284264 576511
569273 466347
91323 542797
243874 614265
217114 744312
573176 265682
978976 419897
45301 905654
394029 241088
417856 323290
291349 81920
591371 523633
383859 692843
282113 28883
957550 695581
693288 723061
487938 706513
890271 623141
127319 794267
304302 603408
443278 384693
452877 543110
671220 867874
144035 783608
502063 99962
59837 774594
104831 146063
797231 427414
611510 834720
116859 35340
659430 934673
922697 412477
921249 587519
853626 326990
594622 389900
370524 554402
801456 464105
265818 454526
560059 869804
663847 700048
599637 354592
327799 601455
268046 248122
573389 226972
74654 373469
555958 289555
679393 389118
604814 428585
763781 850498
89000 888007
442088 391972
397988 238735
363647 654269
176480 436454
352450 241279
617107 877747
946947 363717
693590 489950
259704 456856
829182 348032
248586 841790
978879 253479
713106 511409
223403 727808
745429 273612
725846 608578
107099 326320
598694 438147
785782 512979
316533 520351
471596 877294
445915 85322
48544 889787
810614 703321
647130 959374
574754 601310
715096 327745
703107 757171
270335 441944
208238 487287
890317 405900
861993 485317
187185 175561
632845 766210
974270 281799
761051 853248
327038 313033
750546 824261
89859 877639
594651 891436
23317 861806
600533 773308
155758 920236
741480 792345
770267 728372
782467 892980
173581 98445
565186 738651
248520 209738
891912 667780
760095 743293
515285 774877
405353 235421
188397 773651
118653 831727
34022 973386
350531 197138
666443 619036
872452 922989
646408 643005
358346 212241
360272 969224
40788 143713
296815 800330
206969 647824
513385 932838
597396 392068
73112 545091
976566 404340
89805 487240
79786 945714
191832 547280
842498 443091
636269 545666
593985 939174
166636 865734
542372 690169
99647 183207
770095 909437
453317 549948
260929 911662
668552 422396
93870 885723
808617 394054
795765 792998
239483 279002
344782 197729
619358 796698
439181 398593
181233 212501
691108 159818
704022 914989
932745 227983
760400 303885
335732 175593
744254 544505
246856 821667
174447 440089
375546 971211
705475 915317
438470 864407
805965 782777
926469 707567
683083 913113
569725 47709
431280 549976
217828 852316
400604 262157
337944 514050
597583 806482
916679 690555
260781 270774
954335 296958
350552 480859
663503 973433
358516 233133
629673 685155
314664 306585
804868 392070
209383 214591
634875 341847
146813 684970
62912 467276
62526 836296
524924 738331
269369 559032
863461 643447
139284 599578
937729 713052
117689 251017
355229 939334
130772 978451
134109 720175
116104 352678
712196 109159
551440 282486
24320 802548
837433 734881
549339 712565
757465 565502
694056 905521
807856 119908
131572 853517
205963 69429
255350 568110
525288 231575
36896 66844
329889 371034
868196 640107
227479 860576
464660 406454
443759 30595
186798 784635
713284 326216
581063 881117
933934 637015
653323 249351
941495 565162
842891 283352
139708 473050
307527 588475
548049 712899
599091 264029
816400 682961
116647 595392
843388 444878
896762 733136
820956 798502
919218 382286
789721 300482
52313 873347
45214 817622
931000 291507
971233 494351
830492 349941
398614 620418
360578 655760
649581 610626
770232 399954
135741 533041
440388 163844
643235 329663
630615 573172
360150 626633
825416 338375
752110 658611
311389 279927
631966 802502
130818 855793
296519 801829
615495 698485
741921 575721
536129 559122
639062 111920
178759 772115
849413 970466
839526 836032
438994 861949
335656 362985
101635 586537
216096 488048
708959 106470
54227 84715
263766 801411
293289 461307
208676 193710
101341 900781
933841 732567
757917 446618
881271 907917
76951 832015
559691 301556
485393 701167
609718 964094
606614 397946
695758 842853
694981 840843
284544 579336
526375 389179
720362 225285
640643 533179
463300 637433
100731 270856
725313 583667
36476 905388
787563 405830
494850 496958
206671 27735
550434 745861
39097 154973
670930 258627
769610 533469
514365 610368
386293 23528
926644 127177
234424 284503
280310 713094
967521 474432
35255 898440
775879 870924
207480 64624
836735 404661
45992 860649
457870 570590
944375 152840
364781 128689
723695 490186
280831 20264
341199 299656
306622 798851
456527 257722
767950 367361
152388 370825
191452 226682
460567 544085
930307 697116
103310 811810
654964 450567
524020 671527
762672 602129
47824 896502
271538 560484
257944 448240
738952 796273
651966 615907
451765 626040
538234 833809
354417 498912
138407 686932
398853 642418
102566 217701
319056 292106
892230 673930
645006 679679
610933 347839
614764 355117
920114 676027
477397 329176
316389 556635
283092 814553
371347 550216
327271 330403
493570 244745
86207 879609
948973 720249
851640 652818
627800 780832
734877 491642
896090 479839
51270 837279
294122 106099
267029 576139
229586 712727
899601 694440
104334 904202
711996 579015
912770 674170
249863 53948
711551 148374
149679 696898
240854 549933
623056 683220
191543 948738
74111 526672
757591 279504
978897 251052
69259 62736
323097 500373
105531 769112
805766 373545
838808 366268
167501 955521
772411 845270
503823 355715
633099 946050
516160 682998
26278 902253
168121 599393
60799 869868
597771 445861
91974 153925
641794 673994
159110 886809
635721 676461
390322 250359
176457 199175
597661 669418
482020 255366
511199 714189
235026 758293
270493 198184
352768 226846
383048 722365
352241 820864
499474 86774
98301 565059
758521 147906
208434 778171
64971 912126
448561 370696
163386 921705
970803 455458
423795 236954
542648 397328
637509 420398
591591 350221
637567 559675
48902 944714
600887 277651
209032 27376
233646 721211
771363 554773
41875 841552
380376 965235
252180 421435
34459 443052
624983 680667
938529 621719
694499 316440
866168 690218
691681 717550
83050 920017
271167 823047
258611 846853
322128 871822
810650 666152
829967 427611
147644 173718
576480 870074
532826 343500
916855 378016
370540 307251
470551 42495
592549 883951
41400 931702
925918 576543
613196 401518
769596 307572
324663 153353
760019 979021
799929 795406
595331 404917
215174 852073
820438 84036
591032 196938
964770 692312
33305 536151
503171 493294
58618 828298
941745 716121
334356 716671
969904 395100
810713 307922
416972 782622
721468 287698
259785 674967
717323 921690
286649 784006
753457 278005
750258 765507
32270 878949
868846 654575
257095 666649
58024 301043
526163 672254
253957 63560
692409 384553
563266 288831
212889 459067
336241 331777
356109 623515
492169 372936
85625 873421
647458 936786
392367 209033
695612 589953
912741 720847
557505 820037
970429 459394
31837 257357
95182 975264
894459 825075
625478 745975
513884 647108
513274 668583
163451 955915
431252 784872
625070 733371
837468 717074
32312 907005
707452 379044
341230 244700
679829 545665
212056 656984
696453 647436
46137 282606
347162 921591
886452 832668
787927 742732
81008 93923
108644 90888
291519 869829
769739 979028
791611 301959
923879 387795
19695 953414
608438 790351
500786 49360
251014 432449
583070 543924
274541 74068
187158 473035
789722 387966
587404 850174
775579 300624
505768 234554
131951 145013
855235 345909
125103 762834
351010 872901
618096 601245
772603 441887
336695 333844
248921 274449
533384 562401
325829 324726
304050 824389
148388 506027
699288 334214
414239 608407
118164 926337
644144 243131
261622 676816
77424 874736
768555 312266
852497 407453
429723 768124
201989 48682
580551 673841
772335 25087
812251 799130
388639 322430
615946 801624
661426 541294
484106 727349
749059 853354
613044 776310
478534 761701
202320 580384
396622 671639
371548 270280
87589 513994
819686 774031
84518 860789
782947 767102
58149 243329
827740 413190
341106 650742
672341 591897
622063 380068
304908 148118
891287 673780
926797 606323
824996 669556
346501 933875
230152 147034
933641 430664
865957 641434
758189 413041
492537 707293
53061 199241
831300 676146
230752 482126
680714 941540
310879 600888
722749 94445
654755 637105
652994 927864
520049 669652
905223 672607
250259 487237
156250 703348
977333 290899
890457 484830
756142 828409
308746 227446
652708 910728
345726 151603
36070 768188
542379 688424
659263 508752
238315 213402
332378 929365
921508 720753
277646 436625
340972 880356
83967 878722
483998 936151
871435 908211
406964 235431
398830 288179
566991 900388
255358 27396
236063 594987
203480 862404
73981 635074
135735 401793
216108 50643
691541 499943
387942 241110
129980 692645
971255 620338
834675 367486
612809 411505
876646 372215
921391 424902
914073 673514
328106 637538
627009 651483
818258 649820
21692 236641
971505 449738
210074 456716
795066 739513
893014 401769
508137 413257
599561 683736
540160 386326
769377 574037
253494 809046
516190 626625
137215 958723
77925 863312
111878 647242
252246 837416
603249 422909
63351 606765
45500 810070
147852 388439
892655 692466
355137 376405
296607 533283
826423 428555
635132 720440
290226 454381
295223 808622
280156 178561
444046 608358
473952 104911
757409 855705
570450 929501
61474 828451
465116 194241
453902 371127
799771 88827
332276 714445
732670 484791
669893 934772
570893 204104
632754 359583
854469 686580
943488 898763
311955 623087
25099 855912
407567 253762
363688 910532
28611 861814
200822 855096
622736 405249
142297 100536
286970 472466
551944 745572
63306 912231
395440 286134
85235 90816
484601 334205
63595 310101
402528 744937
610419 282987
134659 969143
730623 581092
163120 392508
833361 495964
978546 604096
702408 485903
731201 493544
84221 805961
533998 186104
775244 869631
236925 651281
888186 683948
662825 932870
613526 828966
485965 252347
441760 770875
728085 450845
669568 699275
256827 817994
110271 978432
694412 139695
352531 747702
708504 431028
804087 437895
230474 685946
175712 436766
608972 536857
39921 267796
353427 838091
778332 731398
222349 208084
961342 695323
264718 678076
196169 216597
856221 294225
66952 853072
293323 655254
691583 502766
780734 546119
34083 143409
888770 938763
506830 518240
483995 186688
830947 237298
130097 577425
727125 436307
922752 292946
53684 645818
810984 270338
712851 387403
770613 411260
747844 835032
324489 485293
819129 605522
610457 398152
668221 929676
42067 896282
277835 301385
128268 833827
838657 246587
635830 237709
859998 102791
94833 528192
794580 547524
922588 703162
236403 40952
115468 104117
968916 360343
198141 697257
177946 758316
921503 385355
39010 961546
256900 767481
460815 934972
120154 834822
762198 282236
537043 230161
40463 857171
945935 722829
600646 815896
979349 613915
912614 749086
32616 762494
258662 206019
65487 542992
634386 690300
230213 760080
257991 274291
583312 853749
593673 818352
926582 712097
95119 187414
428241 527967
109140 513722
353913 245786
21353 955544
893031 104968
927415 325633
627754 794519
810169 674011
679971 426430
944183 697073
865176 643463
951083 694989
269716 457806
49890 876352
682423 419053
321791 545108
273318 664031
766049 952271
238994 854671
978654 410141
618294 600001
52759 903306
646852 916103
255396 561547
259464 823561
167170 870490
484417 38599
697091 508965
784954 834409
516797 726053
476773 374652
413192 601141
167361 220033
603755 672704
834499 835521
617133 392126
262925 827010
30789 281409
325705 178021
406861 285916
964401 186941
294725 575865
740968 536569
228694 282262
445346 668049
39776 874842
65789 906734
339157 153023
324464 159944
581247 257328
257856 56117
758688 974774
141599 833711
726046 493134
32224 444671
711556 570225
758575 908568
370925 937104
256837 215194
941638 565088
653820 259949
291616 261560
742859 416810
689842 366855
614640 809460
522952 522043
309423 588755
261194 814117
454983 585727
567967 802844
813390 444809
896229 406728
745574 469770
961117 694138
280011 923253
596850 772707
89323 822099
336336 303353
128596 791073
332282 648326
791375 518623
136897 976961
99288 545070
741629 794051
890088 600845
163948 211200
34744 959494
24100 794051
297352 869867
664083 969196
131708 855829
350260 293337
694146 200721
206438 131973
757289 532123
107481 807880
94125 804686
137067 606408
270265 795643
596677 405728
819365 437173
790128 638988
254986 831114
734799 245753
190825 398070
634932 315810
830923 438021
568396 496080
799225 536229
652568 692737
670121 257560
149665 657830
229685 495399
555719 270961
728719 99285
682231 879947
491122 377584
212049 48819
70084 282785
210188 719244
718861 970349
528949 458853
176964 727179
921357 344274
190974 697704
754215 807083
496063 347383
801945 654462
603039 382815
798059 527250
43617 435729
760730 979321
643319 87953
103292 90591
199278 467889
616418 591156
587395 538988
306999 250063
376482 93669
31771 791006
519277 344033
545921 624654
517013 513652
885385 914003
664362 923580
238084 40840
644351 937888
475430 330816
349896 286147
730679 262464
647188 959811
536565 833105
882557 843628
21682 835842
309182 834956
330634 462285
501165 96836
204136 390767
363168 202499
106279 105046
711437 917973
309517 208679
831214 896915
831338 686187
670074 928860
215063 755955
865810 632269
442078 543611
53089 243784
44327 861208
753000 613618
754858 280821
802230 789185
888464 830746
876487 707836
561680 882534
338154 212968
585137 953261
73603 922269
355171 954987
150679 840990
714991 771882
515216 590297
286787 550296
616875 343502
746554 654000
737518 973961
428191 251438
705098 971404
739981 811310
274589 306323
927275 884616
806519 612576
643178 533945
487860 878442
711446 254326
856174 733002
151955 369560
803231 544337
246884 854535
819914 807945
643668 86004
42158 804818
742343 817261
405662 234109
757417 567141
858972 645054
148871 561400
887944 668760
635494 571553
234839 41659
680329 918332
697798 658063
519576 443081
255578 804578
283413 252129
882177 634873
856994 966891
938799 292442
530057 254308
187437 775940
850439 95738
627651 863123
783203 547682
300983 276790
810090 668224
855819 296392
834760 735217
696898 662532
322512 242461
815330 583404
171182 107250
816088 537758
140743 808413
147727 91967
881613 849953
749117 279307
649263 720771
719657 835229
374725 705841
836268 422209
677391 446349
593344 937745
814099 433384
207227 695322
520658 341646
790010 535567
370910 267375
241183 489904
229373 73788
550597 694416
819409 785115
183466 522216
670154 525772
160881 671046
368429 295594
251049 740333
708579 543734
890610 388401
607877 962475
48000 879850
290629 657692
593502 470905
587959 821185
466605 939450
81798 575793
40527 181241
155814 694157
427810 795113
683509 365346
901998 692365
68496 55611
803867 41874
328924 626805
156789 183316
603857 958807
780721 633775
391129 28449
325713 179571
79130 865529
132499 150602
677265 816725
151716 776434
758206 742393
268160 717601
71734 72492
342634 458857
861647 72995
726336 970826
816792 803198
710630 265941
574038 601459
816495 589514
159372 921688
548457 863206
152107 119720
200010 747463
733802 391447
393427 827579
500932 745124
753926 906563
344298 334812
41757 798954
296817 476580
589140 881675
246608 756875
893861 331925
974940 228758
623750 243492
301142 698167
311550 602429
622292 789273
634404 415805
954924 650247
130959 972585
56226 452809
32350 828644
598421 397421
57633 242884
976825 320417
735556 412531
196316 883947
320597 767190
761989 765496
699665 492174
900227 393984
358547 488615
742339 484029
44960 527859
295089 575645
104430 920030
73431 129654
919328 111633
43120 812040
971113 451352
699390 248820
656542 632347
729233 495641
494880 93041
746411 751544
306951 543181
770307 29556
831029 805001
657563 793746
52622 316692
237511 561249
378836 696662
867682 671131
389106 19037
803571 239568
115803 798805
149839 904655
339155 264102
878030 367753
668355 929320
272942 714854
367371 724014
281450 467028
301192 476713
170444 760507
759809 973713
103040 266354
837015 85328
164773 747884
666467 773845
498407 411905
419394 56677
834883 665354
501554 102472
210777 581188
36029 132756
598104 790260
525712 760773
451923 918807
50054 246805
535756 916004
688348 776892
280030 755105
453460 889330
252253 572144
268723 436879
323820 191705
256003 668673
513014 641374
506201 119461
722312 377608
627923 548576
485928 923053
207051 703530
83169 825131
541768 360313
926765 314554
32876 904415
71856 809178
405335 237878
104630 262827
193052 239784
953863 704258
44748 799605
112719 84698
854074 291934
323464 645699
544725 715265
932290 413025
281785 192368
267075 189310
774341 551169
148481 193645
739898 729139
748856 549783
838859 426046
197839 59771
193198 758682
800576 457706
232648 601348
367051 184217
673066 723966
226610 564420
892356 731051
139096 716150
778886 927677
20691 153038
952360 594719
287945 795778
784807 631209
149040 916387
334103 598345
283287 300692
802483 552432
174283 156137
335868 331059
863563 642637
313349 615106
368471 290635
168775 758765
422901 797458
200649 763733
302982 144967
148134 832568
384526 931463
551689 694026
501833 910103
807114 961489
219835 202469
643219 967291
198196 841689
53442 433496
942822 563894
316061 309503
149571 838182
945537 901939
394614 240274
326964 435872
893294 364051
822040 819550
491071 705450
592230 423971
275865 792768
874619 671197
42723 843128
922107 698543
762064 979347
509051 775629
337816 205881
67923 853250
112759 880161
246873 208772
275815 805784
65866 830162
645067 436915
69347 855442
497553 70041
691427 237976
101681 344905
477749 855649
546338 612907
827511 234068
730775 804944
319032 286508
360712 195134
727662 918505
419054 445227
864531 686263
105767 89877
390696 256178
369582 201635
636985 315726
805440 310076
71078 59514
915386 689605
662423 975486
757961 428720
539696 627174
806122 789181
472968 375770
796852 420812
102406 635433
74100 899834
642865 673062
78180 86190
386251 603628
454578 323103
555443 695121
139423 790842
126609 721679
405978 774822
70178 855352
770210 745903
124320 837861
710111 448647
363768 333739
166485 743518
30569 334509
194588 242415
408802 516407
516194 733905
729266 786441
137070 97995
197303 883656
174714 462425
475506 391214
822620 273229
332540 594784
762332 564030
613414 259550
307467 185828
508579 354905
273480 730289
488371 364133
85432 28803
127146 841715
309576 427788
148843 697848
467266 260975
124362 90993
630598 540552
340307 587091
765352 728319
335187 640260
894089 798783
282205 657108
842916 618614
429828 596589
75278 849043
207465 624931
805707 840710
964761 670812
305412 780739
164178 954189
210260 851062
340306 246423
581256 202977
725579 726178
896970 731065
925981 417814
39560 197721
407263 212915
222634 157070
254844 137870
310779 838054
819557 327857
114678 515802
901932 918487
542604 682726
137871 864292
953081 546934
376161 881057
130765 975758
33523 903055
808455 748662
58151 914092
223383 575858
624248 472609
696781 280290
564693 641734
518413 332647
30656 867410
290057 693466
749287 432016
286614 120419
448459 304186
643946 261886
251940 67653
344460 271983
313452 529396
757048 536676
21730 790981
88382 576283
562688 498722
517128 703097
372159 296450
520237 762027
625344 966121
28615 818436
846285 619800
750547 500655
86303 877810
118562 830521
244629 541820
77109 88183
734373 703431
287831 67265
473398 261669
753647 755548
788002 408110
153701 201029
130720 980157
952571 682257
648102 209368
291165 595498
340275 335271
80206 27077
538175 595234
567694 50618
606520 414208
680997 511876
221338 602241
405349 374062
759701 980230
366655 261933
103706 265050
464932 590350
243159 775554
338241 250619
632664 414313
764194 915872
780603 733739
651961 443029
887844 721957
533691 937257
620471 586084
20497 473294
123191 835842
977853 509303
266553 824730
603472 201553
60461 448319
379195 883017
326709 512936
707009 545864
440895 255628
938238 622768
45080 96801
815702 669047
58904 849559
240098 823117
904778 421434
630026 364990
528516 586994
748286 837261
129071 720683
220318 673840
401017 618255
696887 261124
343136 269772
143492 945474
513768 733173
928922 398559
735992 521556
926049 462438
394929 613645
242543 435627
292672 295810
217601 695686
98861 57435
590679 180673
736385 455323
842918 262560
223180 469107
812327 612635
101454 843360
731434 801295
593522 429145
45907 868027
732777 702431
109981 232716
883707 934743
501657 336070
708427 448742
257973 769301
920516 880140
716934 724426
327652 872947
831915 736765
753467 791674
749223 979897
349253 283037
765034 861348
876351 860328
66111 554831
366402 729813
399415 299915
30437 272241
561073 872586
601294 429371
545194 356765
612851 393688
782473 622821
88128 835226
35327 948539
27984 963570
721130 449740
920758 677310
832858 421647
942042 561885
960006 193318
509532 730102
594937 760732
524580 927021
909683 442429
772254 553991
339955 630229
725731 519882
506691 684259
934644 428756
117676 937493
350063 315693
215733 234943
232003 253434
367481 280900
56687 515320
948648 682414
874687 638357
50490 359688
618958 389986
852781 388486
541683 298395
275898 243774
306640 514689
538994 252072
47997 869517
688313 231246
355874 625848
743723 461218
55027 531299
239950 502070
252596 55740
293207 297172
120466 633375
931997 233749
721638 111519
550987 349522
446898 34527
684648 551594
440587 326214
769717 656059
646524 607981
531580 748144
754758 650158
811852 529363
848339 94512
115330 801412
706134 764267
64120 169105
763488 285464
199470 679658
806778 122138
516154 589501
86592 805964
890214 727423
696150 518765
692678 903982
938912 718062
906515 673621
217137 922314
49364 490225
434234 61059
796615 756690
966747 413985
651315 473254
227561 76360
329167 762340
163122 752851
886023 833404
647561 648862
597377 592292
352106 232322
246438 199618
325186 321445
484671 509349
776406 299962
663844 582208
564169 919124
673525 397747
462008 103729
777633 605607
632515 161178
892339 699555
232440 776402
32414 238845
497595 700357
24971 826178
760005 854971
965644 720168
468048 303598
101265 269565
814650 906684
955537 638525
88448 523400
28212 801494
550317 864393
608075 700056
765428 399519
777166 748438
684794 940352
330972 309118
60294 208111
202162 798097
638474 806741
193628 679833
343753 315000
368377 686973
540761 597785
894680 735376
726907 893257
625104 867007
737743 828929
424068 437052
647216 681267
572358 427774
760102 684583
296949 589355
689152 672499
573898 229774
565797 728847
771510 339031
787798 391316
804472 779433
145010 553478
239259 20898
646209 602604
220597 253643
73730 528799
775984 934658
76210 137362
144848 451239
623311 423969
115852 794874
751384 570406
606606 54115
550213 944129
120213 721038
258435 782489
198149 38918
765444 91747
780454 882722
63699 226325
451903 762804
670851 959046
383797 330981
224717 569919
892863 801149
306759 517075
187288 681359
958360 721252
306027 200771
112296 900164
453252 915863
271542 247638
287385 554138
314072 277760
749573 625176
213565 457904
441437 533777
776163 911243
707618 265115
418442 925999
66018 50154
195738 110732
61661 916744
410741 49991
211915 758759
673932 831326
35194 977874
38804 29645
238097 835579
727473 324099
835455 379331
728849 260798
746302 806586
572194 221311
111645 882390
805614 798315
549958 865057
49719 864529
71392 548525
365944 304970
806409 960730
383186 276938
479283 388429
582016 881384
541493 383463
722601 683681
43475 805361
612573 965627
55552 874092
494362 904409
25679 542528
749055 843062
578470 547249
406947 286046
743516 272009
173203 736234
931776 240133
968355 532317
852792 975787
36311 679480
61055 829696
621118 767853
520372 893732
695691 285159
101523 912490
180822 771046
210522 778424
423457 570065
130298 858328
21327 829714
729719 795635
819922 732767
501348 693485
369821 741318
658031 619285
470224 303745
370063 223313
254998 191946
336652 573577
451442 358714
766342 404170
636652 805120
777537 282639
63379 112807
175349 460308
514998 139607
240145 833334
238467 656408
619066 834660
616897 443068
740440 637389
635522 213528
491446 191237
772311 330782
816867 800845
127030 966204
625375 546904
124918 140965
113574 799707
421449 313624
343277 593586
23447 73401
22557 942403
940193 211439
375236 703035
650631 818750
50213 359345
365346 586998
351918 216815
93525 514912
374282 304772
43296 779946
879400 673782
755898 756311
70989 827260
351511 219610
272234 809207
801415 483152
378036 254527
127940 136280
374208 279809
107498 31384
872522 851692
117388 965444
242444 649685
312506 251543
928979 706364
411536 455251
636257 550604
817003 683750
902592 338896
639668 110206
288672 68990
493171 463766
262508 426102
645127 418161
241587 778748
252055 464959
20152 180290
966947 668357
542503 247724
123089 874201
697769 775283
525336 368053
182773 218326
592452 533289
485983 36688
719567 514096
720039 376626
659690 785775
911827 624698
580008 852576
633691 337977
19200 241613
541753 693581
116216 521007
363264 196066
35774 140789
812911 85950
292013 112322
828859 684668
659734 936165
303560 288956
286094 190902
439484 46663
379463 178471
654010 648718
674956 894637
253427 423551
762140 356779
381403 953709
571639 371966
294346 480305
802400 297794
636486 562769
500253 373057
536789 370338
619282 388288
387914 332572
64822 829359
595454 448115
326162 457963
485551 99799
726003 920815
91538 896382
903631 735089
780173 378977
947788 709259
585384 719462
140670 955123
48183 261585
219443 488729
383621 826215
786678 461643
298472 188968
95873 563594
239418 27271
885915 914767
385868 206501
261473 551483
863581 688101
126517 960136
610987 792030
557563 894947
386702 319117
279477 726328
787499 943457
164303 881453
40770 66373
90817 566921
448338 920295
405108 411065
832005 893388
92985 41041
312759 870167
260755 189883
452215 364646
771041 341291
548106 745895
297017 647338
647112 725947
388789 557476
627157 792547
32200 417351
143101 693072
240793 832593
695208 528109
587985 819471
910678 314862
372288 606484
563571 438692
160982 597575
34884 769124
357065 592864
482563 102015
523554 229937
284181 755606
618178 968306
288158 769464
407013 286791
84145 942659
880929 855407
882071 835638
605600 961593
366628 120115
237475 558004
205342 36994
628307 473871
698667 100709
894751 480602
727967 496113
274762 658829
652348 937052
441511 36308
581987 324764
248418 32594
200280 216101
298877 563074
735111 973091
52912 937246
743774 840360
223013 489620
771304 27348
101117 177984
452617 281846
130412 828564
696950 355116
726201 324599
286857 302523
691819 504834
65042 240559
592872 934942
334496 332087
49886 881511
495573 367828
349385 321090
882031 834720
339328 852513
819068 676050
493069 707921
111266 90611
928037 718535
609901 388282
140347 789878
47721 245580
332727 557489
224349 166685
861128 667271
299948 480167
740366 490948
636361 576614
971180 667397
384946 828745
382709 570406
46941 284790
358901 655846
534110 375987
833072 699586
359696 191381
222017 687962
149481 351144
306151 239172
538282 291473
765069 535095
268998 563602
539267 513080
361899 206123
431781 424599
672197 328058
369421 695953
286732 237158
591050 299988
827449 798245
796740 301391
752055 720777
64475 545261
434287 565525
818876 791762
643144 89626
328222 168819
918403 323003
147087 960005
288430 546846
40737 882002
887971 703603
23882 827775
47099 366829
32777 774310
184081 769711
331303 514293
228400 711860
553173 65191
23663 229516
42978 948351
427200 304331
829521 836974
564604 340364
325062 243909
284831 449129
418337 806213
142831 395009
616243 751246
123559 841299
455425 553325
303489 804523
798857 537760
161408 193151
63006 902010
167017 876449
737189 455273
372267 289276
525045 587028
445926 66015
344267 652667
128340 348614
762179 726023
80578 126854
895662 691724
717471 376214
522926 41742
768809 849262
814671 937698
368608 289555
104045 951417
670921 942886
125546 348450
515276 210306
841057 732272
635623 418029
338568 629435
441502 289379
134858 693548
641292 939548
371777 285379
732955 808114
764619 959876
35416 21866
691757 622712
309402 614162
356666 301369
76355 624328
328329 451298
289714 466463
94671 541240
461186 940905
148755 875211
598807 772749
584836 768130
774887 22356
870605 917890
47099 866358
812772 463927
621964 915508
121429 564041
971580 375511
144198 959723
742324 483150
747664 905693
597303 167968
333527 651942
224968 22839
59100 819509
699498 519950
978254 659362
495480 684077
79353 549740
791377 669686
756440 403735
95715 567010
779831 546759
88644 871717
24574 862488
637979 556332
690629 816024
458365 577638
748165 600123
921694 918204
122150 405253
558964 891658
460855 636699
702123 333095
767235 403297
339755 156545
746437 310746
185948 768505
464004 866139
902173 313275
469921 370128
234772 55069
847501 734420
797029 384037
800221 475691
123180 630440
577147 834775
294942 577943
265416 563642
234477 214126
608484 772473
329831 191185
447615 88944
696632 601963
899985 693480
965314 167405
234216 515780
628196 861675
83430 826760
795580 766940
81072 532521
633331 539291
395625 619806
830869 900841
482285 855070
150152 903039
405483 512573
208715 850516
538533 761978
515332 775748
677417 81037
125059 454724
645248 203487
697037 642806
331736 280864
194415 185772
416728 604962
115125 967172
577094 919444
174027 424722
52771 903141
217249 666068
542025 754657
864865 890598
741877 131133
549665 798158
367790 609541
390075 324088
284932 418483
30614 960618
942172 711300
448112 25656
251401 767611
277059 242767
185759 681100
820088 819867
699273 974196
649880 257225
592714 444648
627800 954502
523861 406462
150598 868522
297551 810095
950391 633852
340373 245157
458012 627414
331448 256007
132183 664607
240987 831122
265179 445375
617423 681065
651260 633714
423260 160919
288718 782328
820918 364900
220625 698922
428287 788868
65755 920469
305683 192670
144852 101566
516985 338812
796486 379384
434576 674911
357185 962307
380988 210235
487184 754627
84236 968393
606975 398157
244642 201610
200590 56056
587490 939167
764900 909118
905234 367465
126890 580726
759630 459000
551487 745637
282797 749902
671428 871141
498123 50584
409759 161484
155022 959846
700024 490120
672277 536237
234551 855059
730195 799632
836988 478646
658734 702416
360125 305810
484726 710798
580188 723545
872236 669313
181714 770726
294759 653870
799779 785905
147575 834848
604348 808852
908107 677033
560080 441554
166890 221457
835221 806248
64806 821057
52510 812099
542100 362798
845876 345536
277701 190535
258578 45824
792723 492462
787211 520437
34922 960267
967914 472710
527078 384735
243131 440431
83016 823530
373609 226483
50717 40830
714291 141594
790633 950969
165083 880793
247940 820155
937128 701020
823463 406580
220448 853069
445479 665606
489688 492424
606218 418663
212058 459667
462918 748730
656482 633712
368166 554214
970143 530914
533403 693322
194677 118633
849495 663678
796509 451066
906634 592857
163975 776849
23006 936286
752960 851612
209499 60112
785066 918108
284016 55025
773206 393852
444686 927943
479595 571357
632663 159488
129302 973373
322983 591255
694740 569924
313256 263707
221538 834260
335437 252148
48254 809676
774499 317533
405826 515870
758990 282552
194643 69075
709486 813472
907858 609068
763355 358856
556014 743415
874394 637100
614136 684153
398784 822276
752749 66239
51628 316348
933006 715548
802781 964311
238048 897945
53493 198125
381380 52166
940212 671801
737451 480720
59824 131597
418115 762245
107545 927145
111774 971733
465841 601418
527749 405484
139282 558156
649677 956676
397862 291069
420612 315695
112275 720670
882003 733592
625092 966500
444251 931383
276344 276002
800528 775009
39766 806204
768381 398481
562189 880001
348124 917819
273381 434240
538747 264281
484738 700318
972529 223474
742120 685327
269262 550367
375084 95717
925338 602032
56253 201521
161926 883184
900355 622585
887719 691037
916074 320296
960964 661010
768686 693953
298897 278220
618035 439299
236496 730322
276750 570071
847587 286270
673949 969895
386975 333477
391849 210957
271345 795053
953397 738225
848060 952845
911310 716864
251297 54031
48451 809478
49926 495420
182660 519289
578638 851267
850660 656318
254633 835521
616519 196093
263077 712858
101621 212442
556339 300707
34683 531936
475223 764195
597502 451128
662295 922694
151419 177969
978561 248166
126515 979068
775467 378442
78697 864217
589110 789225
690961 778373
159377 173300
221664 741704
365765 643499
103446 111546
215686 25013
674422 536944
95422 860435
877601 636095
589222 427656
219106 604699
614485 409383
903952 823332
49445 899794
361977 206596
612624 441559
123894 952546
359460 137968
895710 593065
27908 961420
980509 605270
98079 853758
294937 579859
750714 436058
70789 924039
886614 486177
794158 529156
179946 521140
318453 283581
210417 683245
31984 271923
270379 195756
743169 463961
247935 757184
321045 540837
625005 563172
125909 840027
780458 885018
274999 248261
661589 226307
302498 151758
295571 413837
269331 824062
47114 139399
285585 557817
319126 549542
575705 724674
239539 551385
823950 680328
852417 291759
101734 515367
962760 331489
543407 297123
781759 386307
24368 151181
132546 758247
22744 963710
917909 454873
67041 921549
39452 943652
837692 702489
846432 722070
944560 724517
231476 664465
656066 788910
273198 439305
923299 345130
249020 54647
891566 730379
310306 563995
162508 744826
482826 758822
766911 400955
418387 602034
198092 757049
126073 848932
57143 318289
250058 642707
536029 249665
182269 169956
941806 561515
52748 868423
645933 79589
305165 799234
346399 329403
442281 896669
569515 224969
882563 841723
131003 721631
899697 312016
725915 519301
695735 583747
979861 177510
483786 923630
293125 248554
973200 686922
923688 144105
675093 627883
575589 667860
744716 690654
902423 671830
212674 738249
258068 800529
814616 732696
497933 864074
120696 939594
677435 343179
138714 692487
580021 854138
256619 509517
354773 378074
24597 843613
670176 938224
922816 881585
144207 752718
952385 636058
749458 767919
869171 728704
77351 902794
337286 540293
368941 302809
805837 785147
240109 24550
499882 720526
379506 495106
739752 385132
789759 841520
77934 38010
804328 789807
418970 567394
156782 958347
207503 688373
653093 694724
734926 282128
909948 462090
955809 702868
65651 841558
785513 542896
292159 190953
226386 688534
491359 96603
319985 270752
363936 294768
461789 783515
647362 244652
765926 363630
78785 875782
125211 845782
941106 562761
29682 286394
505676 110456
920665 600407
768704 919582
328215 277141
748886 731123
130924 794427
229348 76778
92543 289124
491883 706393
511582 206778
942124 684724
150762 87301
759844 979679
832020 354904
770649 843899
498720 862072
147428 559690
130117 859050
622550 781825
852072 653055
240152 653431
579284 766011
480621 596150
197758 774832
810210 672508
517145 515077
899712 732280
455660 595790
223566 168813
71327 856594
205226 933020
827847 400055
745234 471313
538556 575311
833232 357827
254665 260581
115974 398248
76721 125530
684174 631735
129920 858306
426250 615139
643375 678731
741930 468522
246250 793791
35742 891796
312981 195836
206883 625761
53408 256411
493078 864818
797013 516946
428585 876700
611034 288277
45219 822407
83150 144616
267307 231214
943805 337385
598768 400125
161681 389742
920367 828679
942002 716863
64379 492863
835324 384378
688715 414096
37659 685453
703041 775459
268706 560775
703910 168776
517149 321904
221046 476336
768136 289665
916701 327002
75930 108781
558684 443462
353695 619058
731765 452045
39023 141798
391619 168394
507731 45927
751879 638274
189266 734345
572419 224643
158198 205929
571450 490958
305290 281626
715104 969980
359916 208208
760634 296895
797479 138439
685768 682029
564635 496697
608491 416940
64359 904419
420356 160151
300982 783895
310205 219961
463337 905607
279577 730560
148083 886847
389465 239749
753435 279087
259497 843946
277459 572009
932677 236634
457433 563471
757151 640570
285045 72014
241092 728244
448438 27990
82770 376086
330192 255268
34052 869555
613328 410897
32681 970760
62422 50142
131515 98693
636416 850328
715478 457837
774672 19958
612554 843931
946921 905181
686019 838184
213186 757664
757607 55523
651924 778555
493787 468968
129661 760284
925083 916899
785260 426139
218180 47846
867046 640485
587407 789923
119742 393247
48377 906759
101723 55883
728698 427448
658731 774940
811364 792870
660107 980600
522110 684637
94735 947743
578988 33132
938408 377923
967421 533785
751524 841573
807948 403809
117049 130234
36636 421586
159355 885867
735376 453819
224933 832439
122639 647836
634597 944946
189017 684929
497445 867866
326123 461775
128834 143053
172021 447026
830551 684190
581641 479353
954504 638559
405229 371068
524299 801091
158479 734422
97210 855104
175598 159316
167153 869509
764521 399579
293898 107909
829628 431959
713253 775491
346227 595194
198880 847369
668646 523094
628916 793303
116008 757674
636418 343648
671474 346954
681848 547747
139664 451037
212474 27945
29402 858029
463380 413203
751331 746646
867885 901726
178069 755203
577930 475512
266115 826519
834982 363931
501086 842269
701014 117715
906379 340037
179811 752452
584103 312878
519273 349333
206038 759255
541781 732244
115158 881957
441785 674124
68106 50563
697258 654373
98949 630929
751757 263611
45794 584479
920410 654000
349849 317182
654891 803300
387493 193614
668921 929433
293104 91650
832264 316871
810706 316664
575735 654487
209479 826197
463587 593526
184406 599020
740176 524065
319428 551084
109848 978151
72103 837504
142198 794383
251389 444271
587618 473094
58444 643158
85667 293412
708275 382235
106142 769104
591532 882987
750892 278355
637158 553088
181250 557838
210166 843370
646733 844056
281318 562291
289618 579877
448155 48813
248435 752404
954223 737115
373817 915226
218475 688467
859425 926760
580422 188261
734946 510064
212095 836835
836098 708082
618807 797613
738194 784116
49216 886305
311899 566945
914112 733395
886764 703600
42251 138668
328592 653551
475220 105021
597314 823144
56970 774375
197950 840925
185992 608441
67805 907180
922419 386130
739352 782682
622372 245377
228206 202661
744546 546197
32760 799784
96239 858739
919684 732766
752675 798874
598593 393985
813692 438035
294611 101294
728965 425181
168528 78687
67559 52634
562768 57994
267916 247346
532010 196353
114907 350550
32003 811316
736035 454058
674595 551309
277060 194774
257097 247941
40301 810666
113257 648428
945303 203478
928288 718099
642550 201036
211482 859074
576683 35613
803700 308932
906886 435107
27816 960458
804800 374196
468695 875093
785375 464926
786578 735217
206002 761329
589875 933139
862851 661872
559786 443333
297199 154648
574346 878514
132857 591318
476714 531426
482382 698347
769397 322386
978222 423366
800174 841514
212668 691333
346307 659578
186866 577518
688791 361156
867461 698378
748310 389526
333403 194808
92226 153302
502387 861674
729488 517162
630905 600430
775482 836280
969408 493339
649256 264343
781400 923942
959047 594560
187322 76979
787576 266455
333616 365204
926835 444487
276766 748156
676178 948555
241491 770188
800681 305449
795068 757365
755799 276840
215590 255072
489941 898106
539021 471405
526681 340879
331046 546219
599198 394095
93671 866500
318645 282048
169040 114146
452760 624046
151356 918335
228449 479025
69989 538234
883010 934175
918109 720157
312484 622808
557752 742259
768468 558385
615403 406982
285756 60183
908268 917400
170808 738482
379808 696770
266936 199309
586793 597389
208725 718131
691310 591142
88059 291868
606374 419390
109735 642736
22971 901345
774719 939334
295478 696560
280386 288776
40145 141293
631226 856774
309137 579835
198586 572522
755562 750856
127108 693075
100135 899054
379408 699381
346036 238754
353003 815852
191902 764827
613755 203953
150827 828337
562731 638628
862587 883819
503394 235831
698788 455914
345511 872731
263919 800026
503740 596270
690208 381935
547136 745506
326170 460169
237525 521724
256658 416810
678592 333637
949397 168356
519758 892801
975803 671535
576910 599759
391696 332144
280117 189589
652882 617275
739644 129180
366236 886207
927535 867377
577661 600024
251838 797336
772836 910126
623757 599349
136095 598684
814029 371202
477093 690005
379505 604468
203168 628306
108392 643760
316289 844589
156089 542825
671287 945141
244923 786639
385617 299450
795215 262647
559216 438100
95748 939670
496366 666179
414314 330473
793941 971306
582231 31475
129149 153228
963412 538383
476589 104912
842439 90147
20080 483715
776981 704891
171769 697975
967663 677294
730668 494205
721196 438467
207122 483234
963775 487529
810457 280720
449762 617809
33401 808250
102767 218546
240017 494433
218445 487216
962494 618612
90175 943907
48683 440201
337556 255542
42880 960067
293716 321448
374640 597297
141947 785848
526407 797159
585520 826813
394985 181095
335941 597907
79855 966764
202739 631683
20757 973013
619849 782591
814905 646543
140573 555917
505825 684653
304034 292315
116046 347115
496917 908221
46109 61385
343368 287512
188282 93500
276802 239337
392211 218415
554125 631154
212600 493211
372014 145141
871899 646247
717167 514701
879799 852057
661227 932148
351677 893728
932247 912731
294480 596353
77469 137617
181020 467983
739871 708549
116581 638830
320753 299694
494422 336214
588030 914576
569572 890813
383492 301199
96675 57440
745895 468267
542847 680874
933172 224509
490620 280610
654307 936140
882798 910216
541966 700139
551750 278525
182988 101356
760471 308015
373309 711239
360825 356550
368106 118585
346066 274103
533093 915340
333367 645444
780603 384237
575230 229065
741777 895774
341112 155330
247592 814252
51549 914116
47836 314804
264861 418416
910538 455990
644770 82824
205645 391557
706947 623200
28951 532427
657062 843298
692386 205350
571151 468887
885908 831753
587740 312808
578941 599189
775668 656872
747021 979743
842653 740536
668772 965199
400174 198374
129095 970718
353018 488165
877831 634627
255460 440303
289101 73899
245522 638842
495256 712796
860342 382057
796154 969477
655862 482770
213345 457505
364376 197271
262518 832230
662989 729637
756707 614241
52665 129878
867114 657837
753638 721800
817080 747222
468967 369050
647203 219012
345922 863538
406381 358204
322073 310741
391924 329616
303722 536774
25746 830230
58190 908207
829621 348776
556266 926098
47995 162277
226919 40571
156688 920910
51602 648020
375639 677370
68266 546405
758053 856758
716821 688376
424082 307652
890977 828258
63236 847553
900015 732289
350126 284828
680172 844368
260247 552306
888618 677665
945200 339923
176749 770995
158955 735988
265158 529258
531671 676271
217827 695906
243518 872422
263140 453235
913761 432120
839022 668036
406183 651034
836979 632839
683821 694664
755501 669085
204617 483480
889098 669140
892212 915965
106852 370934
848090 619673
299672 786039
560653 702317
71093 27682
436676 769257
277837 113619
825815 340309
358235 237070
346855 508310
764355 459739
665120 605596
333266 561102
754801 755769
674979 333467
50173 493038
618671 909558
246568 414709
78013 72613
652182 805709
544055 254322
376612 815835
114364 960378
156264 870589
966526 336760
533822 773167
880738 714492
283831 420288
257960 805509
43207 100774
974801 434731
802447 422371
36972 575782
605401 796555
209054 587738
267578 420268
433344 373086
946374 152825
668689 621461
194811 193979
250204 27920
152253 921998
320964 302494
250266 699252
572252 225272
593598 291880
493839 94252
583775 427966
273944 244186
420539 524044
48916 858959
51953 350437
900465 628549
926323 579690
947294 349575
920886 719881
312898 773969
651064 735516
519048 239428
319610 269311
148818 963463
884399 671382
306726 225416
835064 371776
824715 816108
79273 31673
396765 292355
345495 309522
943245 562658
631290 454844
975929 697674
482180 401253
256368 54543
254035 506653
237357 279939
675911 343356
827882 686507
77994 124493
184549 695209
753382 569282
561288 487810
128674 102542
64611 235422
702431 914078
845916 469112
895537 917646
332207 635734
585691 896104
320954 325913
921947 467054
551941 866961
94428 626053
714086 970187
862743 408639
602925 884568
815442 640467
120866 244129
543992 346410
933182 714583
223331 678432
514077 334353
829135 803438
591123 297793
195899 70235
506879 682301
66786 574198
635561 531284
786662 421456
281945 25949
371147 946479
757535 743837
736939 813214
879627 671967
258768 777671
227378 152172
267865 486798
83559 969279
300165 597971
930920 704279
488623 381614
574177 962642
255615 851318
584833 967673
843047 319633
138645 568275
685120 879303
115537 961059
865067 729908
344675 312641
31294 958681
303882 467733
691237 169081
428552 614938
760684 831328
645313 962578
57325 832731
533065 743043
139660 864827
159200 733172
956933 669578
185420 455674
442208 848568
228687 295005
127950 865030
174330 696835
588189 907261
965742 482367
727150 511571
620003 334503
92653 868041
895347 409666
755687 746284
28759 961848
254172 262006
339324 648323
775087 24760
593159 391518
465419 901949
108691 978119
669089 932694
322983 552406
190724 632539
604236 884474
826756 343831
349212 915576
90868 541750
116175 966321
122232 875947
829901 409603
98374 882011
816535 538889
836670 404445
112523 345161
174732 157769
712986 432097
364497 398044
252270 105513
221770 889209
671987 549737
352367 862471
864062 297133
642340 260268
206492 646391
340100 287138
902439 615877
777817 527112
49397 872824
364835 929715
357213 624750
931825 242284
759544 729869
778995 298981
741709 679729
716752 408539
957519 641955
52870 776071
36600 239527
306781 258382
259246 451995
716120 443513
699601 511465
322897 273301
202453 880799
537215 719999
729670 806918
691184 536932
51115 838631
728192 917248
51612 196816
520075 596943
802773 375297
449775 602985
371371 504574
827576 325153
719799 824236
130311 979491
442467 840827
58760 249269
484800 100838
749697 665990
598989 789482
381385 604012
443610 395951
794398 23976
578168 723928
781589 633194
113475 711024
41116 110158
231923 284505
738436 479456
327967 145841
699322 455427
369079 287151
181732 714301
318657 291208
792307 547535
464738 334353
421721 301900
620582 680995
691863 475444
872421 613892
120924 796005
799505 788923
578690 427448
963590 721213
712156 295122
551327 626048
187650 562471
238145 901365
594678 302653
516719 669230
87043 293157
127343 693818
771903 336894
291676 562615
47847 169073
941768 565711
106790 373392
67800 375309
882477 670690
657551 326408
507481 126296
743669 818344
362027 892550
247067 412666
856666 710742
332991 255648
123107 940989
339334 206915
166355 756609
949462 728902
234128 684946
765810 586654
510806 903777
329183 650856
19597 77592
359301 627198
775293 391365
610162 448904
801734 55807
659688 701802
674590 816015
65875 532292
317079 327931
641694 421462
623772 782909
247789 537898
406035 496095
427958 495858
349691 910387
21178 864790
644276 923394
508404 728617
223640 759172
692212 341020
467755 768105
961586 632146
888346 682015
314788 603283
345258 617041
738429 548385
34944 534764
358957 393022
55219 820240
219643 482583
835606 276307
913447 737212
539758 926609
416047 247180
113108 234364
22023 126228
751400 815357
674862 859639
587764 270561
745869 889198
291545 415765
99490 897670
923966 715852
353561 243964
38213 931933
98344 68092
499318 91183
781770 744277
875786 897681
159454 857461
390819 274479
977416 368407
856994 372240
700533 554191
62846 310825
551597 506939
88795 30440
742598 686972
99857 31497
758041 258856
132446 853362
261107 206312
107315 553522
401803 491391
60458 523958
378611 140978
457151 542742
108616 142839
345438 625090
607336 425945
37996 269282
604808 750863
354414 309030
298328 650079
35510 819151
693223 904645
774177 393443
721637 257471
30176 239634
31755 22645
74899 89218
727195 439639
313412 619070
568692 758560
350208 620286
225447 680185
91886 829286
551547 65920
377873 280666
451902 945106
653721 851795
585677 881044
114392 644197
621917 338933
83843 821913
271199 797048
718118 687090
172532 764026
321662 197841
437865 950244
742450 253807
64863 309542
557744 62939
574292 657068
856179 677700
725113 450413
45695 178356
386163 275809
817094 630313
466086 367981
944417 900401
656832 504582
387737 291900
608172 259328
924599 729007
878169 612022
83305 476631
625376 327332
234091 253148
694019 322916
24845 950993
727058 441187
522735 341838
571119 190553
516511 873029
455531 918447
57965 505407
485169 37141
523386 892998
356293 850230
563719 909521
115384 457943
389561 596551
671852 950979
76669 35988
871924 907447
819834 438666
135629 96857
385349 927343
553688 962058
54175 242793
903195 672582
53364 512104
141395 183866
46032 314287
479172 575647
345930 272243
581667 974001
230177 776417
218327 722332
762016 269456
71967 901374
121915 697210
405676 928655
59150 840700
741084 651012
55269 254360
173924 773942
31596 94294
69059 55571
604602 396404
569303 204874
538425 786066
41143 862749
349354 659198
821760 743375
397778 216600
155918 535902
950496 199518
53763 241623
24499 835949
638880 682246
590462 842955
831916 678804
221240 721385
35064 768976
265736 816754
747553 878021
717844 768755
229349 754211
850085 394981
127599 595906
587051 940234
717193 970216
633215 529851
61876 845376
895241 796808
659238 609952
583536 976125
70774 42874
285246 245324
189493 400141
248566 480620
281361 278732
924994 368363
250164 759544
912694 460244
258809 824262
118859 359836
140613 492311
359822 211166
775980 313921
625332 683977
830895 432230
222975 491070
135521 597828
916555 593589
688230 907635
323382 502020
692643 393506
822737 732250
737471 509068
771969 910508
77260 40381
637508 459893
881475 722805
608362 202605
92803 188804
312344 262202
300480 563185
64917 824979
760980 978634
135503 49729
533016 380063
201196 39668
38311 835574
564980 755797
756478 285526
87200 843662
594474 171324
453044 917147
894642 630346
902913 666714
811920 415520
134563 594946
102379 320780
904894 689497
762530 398794
530924 41454
541935 930308
351202 143531
757928 90982
560476 251160
866373 671414
159920 189023
177050 453983
594779 830579
330493 561951
29418 832581
275595 708826
35668 955909
684982 237207
733151 454501
888371 832841
599670 40106
975670 516734
825716 503636
140837 397855
446588 775528
112383 716762
891122 806090
978145 425421
257904 772034
901073 737460
377356 281240
99165 502355
384570 314219
947911 737098
598582 396106
643497 809295
844879 660360
536299 214097
878452 328669
387641 688205
707323 106939
128996 97654
690157 545960
132401 432998
390026 492736
178589 104477
115945 515406
56604 924990
203766 582408
462812 420464
601005 434128
633425 945204
130292 804421
486575 321309
648664 663270
948327 723800
634065 595085
586120 677560
464491 606318
130458 854958
531867 721998
127702 141982
311576 587073
798265 975189
669331 880580
386999 210826
59749 79937
438892 552778
522923 750582
211321 38818
734622 913926
820049 780868
33866 822712
139605 796162
402193 259310
816161 103459
677711 488603
615824 398552
275995 316607
531002 198751
207146 865914
907206 691154
766224 401074
431611 873508
724584 592233
496423 684417
606298 513800
608543 510982
83859 855388
218517 670594
632768 361864
343531 612118
784949 412277
603899 289639
657389 930527
913006 685503
438529 937896
41095 174727
514847 608806
747447 880035
305083 275069
726760 120261
575292 427394
772463 797991
104075 574845
693978 243392
781283 710109
135506 829353
954778 618592
755954 747207
620171 716646
312827 550724
572789 658913
64329 773463
405592 236158
113957 706890
358402 928440
597992 439070
30869 301829
196629 755024
809947 673174
583947 950572
269278 553773
259518 797745
66352 613747
864118 381841
308100 600413
124263 696362
36760 771025
829909 696252
809383 372753
457140 49363
560473 809857
897772 401462
590616 444685
457572 567368
487231 372171
670630 870127
851264 708187
222086 471860
36744 838766
813399 279967
685270 632078
448251 636068
945959 614801
224882 687917
313811 546597
581900 288155
908467 369534
293794 109402
146730 668959
801485 515489
219536 733432
28387 154378
145702 555840
838040 638635
385208 690197
84211 145913
792353 448017
529173 735909
330470 192902
463742 47063
727881 603337
523763 685413
231591 897108
616591 909424
750911 608540
370307 730398
695867 743633
667832 967301
627324 581850
308285 540812
55029 813071
690137 539185
686585 676149
650051 780643
907062 824445
846808 283808
816374 540282
207140 485709
241133 561806
765404 156121
724996 515823
723937 258964
447290 639800
905722 674946
145042 794924
454605 587468
416759 595566
487520 895841
721219 970771
683683 695459
159110 777794
511028 234548
743260 752177
37104 29006
406338 286839
245025 769241
32269 225588
245277 436156
199070 839351
849635 381692
657919 795229
148843 778330
427585 674401
334713 332711
627132 357083
490734 920650
279925 810817
335443 333301
544521 290247
261731 664448
390411 243035
816309 903185
240002 588099
132574 618003
130837 687735
166884 885082
831388 409073
85550 768817
728072 413383
866064 644684
142628 831515
107125 76500
110118 979906
70349 540704
895945 734510
861748 303870
87167 970652
756455 976076
339815 878821
351552 505456
214286 469591
60253 952147
54043 128518
76560 130686
640104 196721
212026 723471
508615 205729
657470 803173
874900 642320
640184 136251
692574 523633
892948 388192
50400 507211
740054 647538
632531 657860
722158 109319
135153 834608
181160 416700
46671 946404
426016 306538
252453 56448
252643 194175
830661 81931
975753 497717
492977 94657
26839 148517
57366 858143
205713 459076
480313 38194
233332 259798
619370 930652
800742 690713
974173 311981
737358 852191
39738 139285
760091 606885
608560 431626
458310 578997
123675 566133
570834 920353
778815 734890
520786 892847
460186 753332
821259 809631
138494 963788
678082 391331
202095 231824
514321 564724
816670 634177
816173 229877
846481 83437
458595 594044
971615 317141
213928 494432
814757 390877
99712 814216
483001 687454
441193 304732
655405 946530
767473 388247
669362 933409
216294 778232
365634 183070
111259 883493
189865 74414
754195 595333
894155 672967
814895 535786
375734 312865
329538 174727
89533 861598
846118 285162
55591 852852
683010 535876
257116 812280
870509 868614
60586 244922
540480 695087
454462 918912
724137 682300
185291 584366
301500 522046
957454 163253
75112 28918
768959 863843
623239 870403
408571 286037
765448 437373
89831 889443
540656 718346
673228 876046
943297 425615
234326 76408
198108 189757
72591 542441
352652 591853
599610 612360
620166 717783
356653 578265
252183 511469
200607 574529
540045 831460
637824 605433
813938 742150
525722 832877
115213 127135
516689 693764
834726 894604
42324 907878
752371 643410
90459 75970
310658 258137
112370 83735
256785 59423
143766 754200
737474 91109
593268 890011
433973 596628
680205 427245
388889 159713
177308 773025
101505 911397
651148 686659
351787 385675
805343 660048
304807 604845
818530 406807
516298 792974
476017 356876
124079 940600
325420 543193
590132 628447
182754 469926
156143 599264
30064 902122
707347 204036
494977 373979
69956 137744
373302 309382
611346 483239
764399 962531
885925 843389
602878 395764
821918 405206
46140 357175
623267 729060
48737 888624
90400 563368
656074 943571
66712 950030
163598 881702
195543 187578
21824 920297
491102 596491
202230 777489
112721 839670
158039 588791
222466 676918
943903 899646
925744 883572
961213 721055
25919 914904
673936 844338
435801 823576
516467 670690
585873 281289
753728 852387
640873 349462
597239 403267
303052 407339
748168 262468
518795 516335
486634 877128
397990 666050
893555 932701
289738 581344
410526 778765
404390 521317
409719 752105
276477 687121
592507 759328
320452 535583
63637 230085
593784 351412
727219 450719
383197 605984
758716 979645
112830 877343
909764 719160
780126 877038
594144 942947
230677 253664
69986 67354
662885 816559
36188 329538
240685 443847
897310 626144
94643 566354
928396 671837
660591 931602
54018 912025
134788 863570
372653 224883
347717 294135
38547 577482
973016 374328
514792 781450
47803 868024
457683 936982
690329 94295
667062 68962
88972 941184
353840 220345
813288 308672
909485 683005
225055 722143
642275 487580
617756 310666
590081 626492
185278 98207
162750 198371
563504 489477
698770 502032
747407 572633
871738 851537
357127 904957
481960 36988
937115 713013
186537 459443
654123 327210
610692 794901
358067 241175
365896 853206
401989 618085
340566 649651
516188 512211
356646 628824
38865 952160
880615 907348
411780 754158
622571 912847
255612 517755
236474 757150
550515 270705
488827 596624
195796 229657
28786 817591
294747 128924
966417 490649
687824 802060
342377 268689
161377 71196
760477 978398
565425 849142
165453 396779
910444 736903
157357 700138
73314 67633
786484 916319
724735 491475
160527 922032
516324 239303
441910 854564
634586 417507
120183 587766
246119 501181
248074 560314
572065 943886
130173 759644
116929 721224
209049 873547
166903 133877
72850 527376
371690 203503
373928 811749
411173 482751
602549 326063
667318 791247
893641 732189
96268 974966
90452 290626
209998 707269
206965 66255
700537 815099
725676 524589
165342 755137
940853 695824
367248 731604
187387 729469
930557 147800
443383 845830
148989 915289
348199 167968
904391 406971
47207 853069
832354 901724
937610 891830
532326 293199
697648 511402
783196 253094
196365 199521
439354 47314
755354 59708
703765 332240
284190 866501
781433 836081
116895 911028
34043 531941
196259 244737
762078 152267
63527 220218
616587 878737
59756 491838
710213 465992
370047 725884
793142 961913
546129 745791
634651 772808
557111 445113
761230 454533
94183 900139
262725 534074
608202 427537
532485 258328
726356 807933
355369 803174
754960 418407
159762 592294
736075 482977
536059 767254
369082 285981
608626 415981
917545 601441
803930 24114
514779 414275
636288 571117
642251 809353
262888 446852
830851 435803
743716 759384
72258 366448
316843 770404
211479 254419
357069 238217
693637 560423
904837 691640
847680 619947
254439 763088
619762 970129
842807 480358
747550 771476
739127 910895
450453 541030
45691 320808
92813 494304
69975 35746
796673 492358
635840 548490
219607 171478
299779 584257
975331 295420
504426 741602
173023 462173
203817 634762
846099 734583
304330 294511
941411 674589
587090 273832
356660 959671
283462 652085
880893 837411
594736 884727
171917 762400
637730 142708
747942 716638
809749 936456
531139 202846
492110 596251
43116 905395
448076 924334
31588 115110
553759 800947
314942 597491
763586 634422
826640 688689
909608 715675
295916 131141
522431 170416
246563 534419
965383 294864
911631 595361
91789 934119
286922 558973
597916 386013
384176 313836
640486 676249
651115 613461
325533 761388
915560 302221
513921 683291
112839 934146
42285 818237
308222 581313
975744 276751
199511 247329
942046 705940
78861 965902
225345 259060
157559 889434
331278 279806
211716 40699
318873 281034
327256 264396
627072 469541
643500 922232
216881 179713
960816 609415
131826 864172
875314 637633
937612 729392
835058 364828
938595 631674
307035 253734
916978 697481
84772 133057
177924 820068
716138 468727
820485 472351
59607 395142
516638 734342
961866 416820
565546 608923
415017 596868
47376 850744
329322 448381
837243 737052
82440 868373
229730 714216
366626 937780
827663 346003
126098 417962
195924 840624
223337 255799
947633 629776
863707 879462
167668 732822
422689 370593
64857 842652
240268 637380
261646 838180
233313 856629
481581 37591
973428 412980
96379 282882
780369 743000
162619 481921
772698 729545
512930 884574
80930 967503
251983 670946
933361 439175
649807 339570
897456 705328
845322 400542
668638 968472
724510 834669
227847 671058
24665 945820
244204 646489
253102 461792
250408 816041
737753 412743
313770 170438
412228 363889
124062 866425
725863 516023
218924 485546
690869 670763
762633 637732
106575 593872
669915 790739
384779 933554
104017 104430
208107 821004
877903 368719
589190 429431
888517 98472
293137 653055
624042 31595
491222 70629
808768 542064
243171 288805
103264 918715
763550 966320
451269 594764
268365 430968
492213 65620
100255 148261
631573 279944
597302 428719
37630 686702
761213 971417
671755 698827
307192 301664
803790 657206
632090 802885
947532 613880
148454 507723
819274 623432
450290 51423
133375 598719
253981 835796
68822 838158
135977 964534
445145 315014
105899 132668
558046 444843
747243 881747
699445 911551
58930 531424
289965 804394
881901 848177
636396 566071
569841 442083
294382 537088
728184 431420
614394 198816
700431 306781
453807 913667
65184 238008
749593 263923
284910 559191
924320 917270
542303 831987
41615 828337
556649 742459
520334 912207
496071 373092
55243 868541
938684 671643
784426 630391
566994 52246
29763 903366
167578 181559
522585 319257
226838 831315
35045 270425
71759 68962
246161 822223
111451 592400
802973 559370
895747 630306
503773 742499
907460 438327
418606 890534
485460 725299
719117 256612
799729 428570
600505 767233
405246 209568
852861 382031
391160 253901
36021 800059
208233 651114
147986 509660
515304 632882
970443 692170
351535 227468
243117 854266
217601 753794
31566 681437
667915 928556
807735 429572
628840 952210
326113 464981
942077 710396
216613 867426
519128 709537
358274 614410
69612 38863
20857 548750
192379 833725
931872 733296
104947 572483
769430 290966
212107 393533
864502 824219
732605 452172
791754 761984
366159 871253
503518 668334
849351 287022
840361 479767
803681 963215
393211 241784
599662 308796
728427 528662
44790 897408
301137 598845
471174 376882
186430 884259
868835 687846
368781 665378
243564 212860
348666 935203
177897 769913
272593 563356
116621 936929
175129 759064
200837 40934
628014 335773
847556 407193
352345 580469
110473 387416
796107 646887
835604 724514
939689 678545
491939 575225
187183 219462
755825 841888
695005 249546
367281 729854
324718 490595
174010 442171
880074 88346
408350 814008
796973 648498
848751 964425
776388 838947
773452 322978
616250 157002
278538 128694
98739 130317
692508 327377
639280 683482
789694 761667
180936 449465
735403 553364
640601 105091
130301 959563
694279 136619
355415 549727
420534 888257
650016 556395
87127 820849
99646 849046
842398 367479
781105 768857
761669 535984
700979 548293
835271 382946
177814 162561
822690 688939
729427 529905
387797 885485
776731 391133
87862 873214
209874 829942
603922 163408
769136 156355
598010 419331
971988 655632
753700 277566
854815 623999
318752 388598
316797 196582
696576 263689
818564 647590
588479 538281
973330 314534
681851 84839
593554 708986
560434 735373
267808 546062
512955 339065
586654 315056
803666 797847
288081 661983
579678 966625
569406 332854
363431 610495
844020 84899
404492 290908
716276 453180
862784 731860
835619 382228
287352 291317
821446 759683
43526 182718
771731 532270
776752 462677
446316 20752
729532 448945
376801 307303
393666 886991
743636 254850
706557 109868
457603 536972
660655 933846
951136 682649
99010 630106
29676 299502
659675 797631
622513 185376
745157 890880
333499 562992
482868 890318
923935 868744
220923 499676
286929 578688
145433 709860
149105 867658
484259 36974
753228 263274
583061 443815
382209 883714
660821 932554
208995 823851
463570 330659
480700 910470
381281 602987
74507 622515
145800 867277
555033 694301
267820 822496
217629 724404
452577 599348
570808 741563
272123 576843
154370 119041
750349 372808
611000 611064
464708 259692
176272 728661
222764 749643
652270 318821
330439 279207
814467 798039
103367 760519
904609 366664
901034 118410
360565 263747
95075 556986
516060 691848
912122 737196
278849 241715
771380 304395
212343 924679
721224 907764
810504 372268
803873 29643
471487 331728
553739 630069
247476 475892
765368 584592
803330 777777
248597 478664
363082 635690
478517 39684
50990 910754
665291 789959
283984 62295
243579 277633
684533 360299
526960 185720
190614 766899
819199 686032
798034 772277
298796 870363
232570 76282
121136 943700
473787 397374
436774 65566
890578 668805
813439 669819
648134 781012
392670 284147
201193 461140
568850 802244
561854 870873
893519 390076
752746 372434
199173 388910
509116 55529
83992 160542
249006 277503
725625 450359
244727 469269
538584 742596
835878 378408
246985 501954
119530 804382
394911 273336
76125 125079
124343 825803
303740 519077
115294 767183
662306 613406
191984 554851
505229 115757
428576 901887
887737 831354
515198 437745
953074 636296
800739 827621
465506 341654
562348 431289
685199 88355
629665 950240
458168 662971
633789 601065
908175 625614
48907 891576
44395 97899
303302 281415
896096 674319
963427 669570
211780 72679
69526 538249
618696 907317
151434 166341
227069 264211
150451 840007
393185 29890
114473 802027
894110 406968
405996 506909
216614 93123
225988 154765
282194 176522
385157 330596
675141 698863
350255 655591
334408 856270
221110 488818
120894 800259
784122 765806
259637 425772
242304 403618
44499 905970
231250 456542
327032 544203
141864 804956
181743 214315
542565 695462
80456 551140
677756 942295
139301 453679
185220 228014
304295 554643
975081 309335
424856 246166
965218 716613
262784 418863
223768 201442
180810 75773
913132 411485
85241 146143
560770 275288
933530 911484
368289 185464
527165 456087
604672 522563
724089 969903
346669 919176
561416 699952
352324 235191
487955 384094
910428 692126
256666 806869
755033 788074
834140 678517
120264 875470
305862 153274
795153 445152
221901 748844
339410 356030
966438 480128
395899 162072
478812 732670
684217 335513
317191 469293
918764 699231
743216 319684
798432 613888
843314 446406
796686 697823
573963 227973
323656 607577
78900 128903
821331 331780
950875 341096
881258 848891
802743 51070
551310 936720
972458 294778
144289 161238
907391 676359
487002 335252
173435 80547
599526 437987
914738 674214
569314 278188
920067 383277
611696 833905
80364 909153
264997 824784
609994 406828
276471 82728
736429 491285
142428 795126
193019 696999
592184 33853
112069 253932
785019 932950
667853 844885
315772 251152
910298 370942
461249 770873
702133 463604
223245 578695
631407 467554
708603 206726
678332 542316
341974 743275
959145 664393
63071 964202
900678 692894
115550 826959
274839 577204
857609 406611
104612 30790
639550 638639
40275 579314
409472 609678
286286 759662
506080 229841
301035 455630
290980 780162
272703 440101
178484 76521
539868 299620
921266 675917
301560 801342
42425 815166
618806 390887
748086 597225
461307 336820
760370 908964
746265 637144
794809 737864
690385 548837
388542 287519
192013 549841
526205 561982
563606 439165
798799 783695
385384 923556
132875 375294
157634 694757
742037 792786
914172 589904
87068 346875
482041 274856
484219 757618
190242 92251
492204 95926
252816 21426
344112 613947
649794 651177
870304 728162
939307 682531
513867 228125
369720 280944
708585 582803
599569 766267
680450 424300
800541 478169
518205 770385
757967 975131
333871 651267
647132 264378
596041 884744
599236 588793
451605 601611
658609 506347
655659 704243
118055 765400
363342 194351
827319 669436
184267 824477
621559 252017
512895 890334
462645 368435
733039 396149
114097 384689
577756 901899
830501 414832
663598 934035
438131 373407
814858 611521
753417 423720
411644 653353
711934 773173
770717 843296
213923 777972
20351 238048
944394 906448
248649 507507
599262 455013
117858 878168
362185 479133
371670 554582
784116 414261
194722 460899
160147 958367
770621 834820
977123 413116
467575 508704
726873 443945
546675 292593
276900 745546
599061 391939
576307 191446
973927 524065
60241 481825
604270 819898
105451 551663
957330 594328
937901 349640
40932 972731
403845 772463
764039 360154
405960 424118
26985 802078
75171 104188
515491 835863
154589 495404
391470 250062
263109 203429
528819 549381
578242 868577
324448 478033
300307 189007
784737 918806
885547 834085
717802 449585
924697 369267
745493 472296
688607 335254
120419 365438
668870 958991
869810 647275
445357 380388
508803 910922
757267 536521
542462 571505
691439 372994
322019 321671
413423 584907
291447 655335
163332 701255
105441 320802
119689 571769
648752 493438
62493 460108
203219 27821
208930 457166
777265 635251
855627 626041
233919 660444
89839 877922
716190 440991
595781 445005
725579 102518
74527 860096
624853 178857
897283 111310
697999 975249
99520 933267
360860 591498
361365 304388
785589 650967
744911 789093
569162 897418
807481 570368
556894 923668
259233 454883
526605 376440
50046 154136
155986 699316
125519 856606
369779 280040
691314 144245
609789 499537
537169 744545
306609 799648
305551 238200
34839 856991
773652 270211
892643 923116
846811 657382
870126 912600
861733 690193
500528 370799
364428 626505
839731 491245
726317 525397
818955 613216
382860 203346
786507 540977
358752 264414
942278 568210
225549 584684
379296 199115
116498 57318
489789 875931
411537 662147
31111 830857
554442 744471
941621 724164
435887 595223
681177 330338
783768 632447
317705 171849
220815 478124
698035 504283
310119 599529
772129 395024
584750 644849
654008 448140
594936 33443
806572 786501
205426 28456
397162 591398
696493 645226
189129 755311
42108 892169
591908 416743
340215 300890
823138 505428
766708 949924
749925 319165
650987 652789
764875 578480
927431 642848
406608 617794
491035 663590
121918 248353
322459 556202
349230 301154
785653 640527
873421 705587
346748 208971
89560 29739
348268 278142
424999 526925
116854 918846
605932 803621
697829 724524
517272 661582
23078 949244
104516 384746
586390 473874
645020 320646
369064 283038
449476 773832
739007 88767
274393 859166
976673 664743
239635 493158
50283 907973
223062 748444
910281 773721
328959 557510
101784 175767
364988 924894
545427 610823
753273 835688
818502 310329
556724 802928
176088 451521
271510 485042
446823 382973
754015 279362
747700 318646
966054 609397
167824 114232
241862 885387
307666 494745
768134 747299
334865 929460
355965 615944
769041 526606
222820 202895
677521 698673
438533 899846
227405 710335
917416 699363
395022 505661
374386 411618
105140 595086
842942 704007
880023 690060
482505 36019
320987 385925
875839 928629
205409 21366
481262 760239
610356 772593
625906 649342
239273 726744
970632 413186
863353 641501
939929 153580
751277 140091
882796 690551
531710 692108
557857 743147
975176 413281
24923 916568
304722 460492
440375 396397
290051 551798
913291 728753
776788 622623
357262 249846
241735 848624
744594 872152
889677 807461
953273 349094
666240 964909
408706 295580
62289 868731
389208 194314
589482 35119
720681 614845
93699 826276
214739 868807
84664 969763
759364 535044
534703 592062
50250 483330
339006 249262
106587 516481
183586 520116
385565 920615
764755 593575
404007 816839
330922 556310
607794 771866
922032 647833
350873 290656
221656 202155
170633 884791
864191 910681
490387 751798
221500 599487
240129 212979
752352 271915
665613 347283
293992 463803
736711 638371
936869 619934
490335 703921
239632 634249
670622 928142
127804 842584
585798 750206
255952 274310
934646 624930
426397 372646
756346 394813
146866 510835
691318 158475
554719 868717
179106 720367
295292 278647
947966 683798
80787 98076
638066 546316
347069 923713
336692 631368
429122 252937
34866 960552
474168 439176
470987 877331
574862 875764
867435 899174
958635 338708
876791 898279
946310 710048
814379 671254
89837 892174
520931 684324
304696 928161
793875 426653
486435 701459
307805 254348
225012 599901
763700 744324
661990 461113
435451 866628
405887 397728
230694 858280
930303 387286
731888 492896
863006 917551
490127 408576
555953 821319
90571 539999
109059 929298
920419 835803
349552 726846
840878 251067
390865 327762
103996 769237
663865 968816
250884 473635
362282 196527
604307 703101
297697 589747
198366 715701
148562 121282
214260 719802
174924 732700
313518 602408
73478 547781
278266 276932
195181 210060
877329 83836
801419 391071
191301 460433
108413 807796
628181 410259
952890 354313
712277 573080
480587 731195
311220 195177
596178 356772
577199 656266
771756 391855
125491 973461
979964 660135
463062 533575
956260 294453
139142 482801
356946 903695
778920 875753
221214 179881
698884 359676
925655 465854
794763 380851
953867 693122
891084 938586
314223 545875
165226 747279
184593 71305
289343 812548
60993 828488
306455 529806
573637 899348
828266 434204
813557 510913
262986 232593
116564 909803
383930 919015
485854 363449
46482 37375
224828 853946
768829 352116
41573 436095
470720 72650
878584 905486
968325 699285
526602 797319
253717 852791
899428 673239
39757 932890
674901 265470
495835 243088
371181 273297
49981 445862
623799 916660
554766 822840
85308 854029
206165 233366
465480 268888
26814 556573
539522 916665
737765 480297
805315 19720
37553 781150
127867 948119
240815 402898
728737 404738
359229 252823
719685 922637
526645 395759
183147 79706
352502 217167
918438 845881
154870 797532
57021 462451
739188 577117
97251 30152
635639 687544
409490 608625
417744 592463
948645 201042
84535 375644
662324 817029
458216 349934
896009 672638
56345 454996
757471 782162
269780 820524
804967 966401
592611 27770
221961 205845
592960 423989
892527 834739
312841 625161
759970 255539
161242 776809
928137 414866
681294 514867
883979 697285
727064 438671
716374 388689
251540 219335
970436 319707
354751 220966
888727 728451
123409 947527
827247 402148
432653 161335
814197 668489
48105 884459
740783 472294
809353 964416
200033 51327
46489 811532
977076 672163
676803 347488
849127 407044
445635 84403
337204 276012
212926 658533
952103 729836
862977 881241
147553 589913
134551 959018
745363 692032
444039 543927
771259 570174
460465 534381
174064 192673
378514 904180
84392 48040
603388 47884
850522 649971
698877 373232
680022 534145
331731 556411
795944 968250
354672 216546
336700 590705
824725 756855
276289 239206
577209 270184
81368 828587
733916 579837
648291 261425
772923 783998
495644 335839
181648 84465
497399 860893
231523 281625
894503 698200
901305 391845
575618 507982
25521 154961
138990 654498
376501 691705
465156 660080
312480 221123
747112 883770
371462 268555
219348 720027
587183 912407
250560 737999
710364 836607
289637 781445
129836 944945
533093 778014
766288 528323
78787 140161
139700 159503
190268 884443
26455 957628
630891 364286
756430 443559
517114 443965
368068 912642
106254 952354
272474 236317
397260 162928
486605 487589
65458 532842
134825 614930
103463 461756
102854 882157
596662 405009
795159 441783
610779 502432
772915 293291
751256 817781
41777 944322
793920 381662
287408 925536
661146 977414
70823 105510
221538 176978
927003 866650
590405 926236
577387 441880
245298 463644
198775 58018
262388 436389
603624 274084
49176 649472
871400 318404
300221 648725
855867 733543
296135 583843
809332 704622
753744 805055
877958 488388
60275 141392
277897 463840
958136 696358
319465 534072
797392 929467
137642 795686
855915 356915
906576 626140
714411 468020
755117 730612
360590 909349
666117 965967
666955 411932
298780 153722
670768 529980
113295 969288
841569 409571
480639 884859
26828 965702
726146 597729
917597 698098
59462 909421
374880 105171
317385 518643
722132 476092
570527 653688
328347 463452
26864 912501
801801 789152
491998 664801
921651 598900
948744 690378
366212 261303
878517 855553
386646 282936
198955 839808
791374 534287
365869 593097
528657 855434
145087 696952
381453 728260
57872 977413
651398 813936
156142 540693
693264 335792
403675 360838
174766 696691
107499 882500
910302 678191
27041 338454
49748 919234
530994 246555
125214 569717
784016 775130
599305 589683
207834 818565
527406 833873
889698 306868
185478 768982
756803 784151
324739 560761
641371 602718
32015 857380
921858 357389
787490 257141
593252 205861
61681 123357
131410 162858
118155 635835
818313 696754
470953 861244
663345 505067
769836 345629
200064 36685
358926 940452
604887 356653
614499 399207
368972 286933
203900 762478
602266 424304
213629 138944
177377 769424
709027 155117
53590 873333
810176 749820
616145 304260
661437 328414
880519 629385
500012 226777
208037 215252
850773 665268
492064 902210
485950 756106
537783 227851
407544 237011
619891 905878
632883 750477
769251 557576
36688 968286
543258 295629
242973 250324
43051 355500
364538 942743
833441 363595
149452 823652
552361 621290
785699 424910
501968 723191
764222 598751
754403 619123
194674 569319
263435 541518
823677 613890
122381 829267
753548 746628
824460 273313
235854 499428
113115 714348
336966 587556
195731 387316
294521 578441
920276 829545
925381 727914
306912 599983
629672 455206
238560 851376
160137 594879
805268 934652
941267 333132
32891 835138
816058 904802
779748 622277
318612 240727
557610 870637
594202 944339
163426 952918
541593 511676
387122 499100
143072 959619
885230 735536
873669 896102
69704 70440
638374 483394
182999 523798
56985 833746
931344 912965
823626 396221
218103 596515
258013 447298
691532 337634
74166 278549
280406 78583
308098 643352
357632 591521
276932 192455
281844 20655
948849 163109
328199 513848
893765 838850
779762 836809
448015 47524
330233 446967
191424 766567
81661 98897
54727 887227
324664 166878
264227 490591
906302 824041
395230 592758
195575 477821
389501 295946
221382 864521
673772 953562
333307 856579
44961 313747
732899 93624
557149 742585
371577 607660
760218 149742
778581 526095
387117 438501
547548 862235
373668 193531
562370 433326
242505 821421
503301 689037
62374 294858
351309 234270
274712 439075
875884 732402
340286 744970
269066 812742
251981 195286
238515 494218
340529 628856
104455 976785
624895 780987
706789 837899
276415 319520
716290 255767
771861 743932
327956 193175
313283 588087
917861 674712
595451 827967
278774 573268
370985 851439
847509 462069
267642 46043
970814 600152
926940 578086
278598 193786
63600 828522
558487 187290
912882 766858
508689 729486
547938 508015
598842 392289
122373 583272
800653 483282
494861 700823
798731 827845
679791 773110
155449 772747
591680 205996
267841 443735
34187 902729
337442 589708
196792 64711
669835 869969
748284 865051
150092 451716
841246 955645
181424 732631
459928 193124
418339 656140
273490 458226
93819 973402
826358 398823
176070 771573
162392 752471
253755 810406
582526 980138
448122 30918
353743 196588
843557 392247
202917 751690
811043 450524
112781 831577
203363 28994
712357 576157
735855 784394
293140 574815
876646 670185
728035 412756
726013 510982
657809 329932
801384 789865
832302 698534
535662 628465
301878 806275
403471 617269
362860 257657
799197 492755
186779 767990
694564 314075
511061 667954
51689 972660
179889 646868
230365 829847
756243 414533
767861 838907
697406 655570
162099 483181
584637 906906
645651 417376
365163 736771
661947 843933
974055 172977
542188 740630
74125 771530
573177 968237
323969 317690
848905 706857
95206 861297
268675 763731
64579 640675
470260 577423
82448 917353
215901 867845
646093 916815
700857 777640
45318 181845
404435 524997
105256 923853
868382 891187
529562 251531
389652 20968
280385 815785
527023 392814
255036 805738
23171 151902
815866 309293
265319 531922
324764 513252
286688 165697
326915 326434
942591 709643
627304 238048
47124 526712
339142 333325
558774 869215
694606 778886
694836 876263
356337 502636
629069 843094
604854 900263
820665 662695
213244 72964
867329 894396
253233 836823
212656 758074
758112 753067
447892 604052
45409 159848
757551 612284
207260 133372
108887 962581
660529 459293
240553 430072
680190 688562
801513 24049
354571 863994
20377 669946
269566 247063
386084 493542
283443 239007
380134 931944
565974 440368
522629 397780
704036 776952
767990 315398
805797 21147
44551 965610
952832 595791
74237 106290
794314 798636
368581 721591
798607 427947
618843 597776
357968 297148
405646 551883
153877 749524
797857 546709
846761 961156
141328 807416
652389 415248
519295 588074
860181 361647
813069 646606
184000 521276
777445 736844
349816 593910
577975 327336
199736 553529
172110 470005
156477 892259
802197 425275
441520 610936
459467 886585
199750 756005
279469 238289
622514 423263
540223 265490
23851 81539
489548 314155
511875 837312
90953 86385
949581 632689
665578 331731
276276 108528
763728 727098
841155 703924
273248 725536
677598 844167
126274 976664
42177 176416
721500 811740
716517 448366
830137 671580
624461 372130
453474 538838
744108 801747
714724 515540
437744 613667
247730 479876
712748 970850
31192 811514
750200 497009
256907 850510
92536 194789
42329 875973
445715 644266
269734 94198
275113 71473
965490 671599
818018 401395
617579 752435
540753 729823
622922 871508
794701 491696
223510 572745
276816 480500
243386 36480
313454 564713
706313 775680
437450 498390
552307 248103
676330 793673
657430 785973
249939 540835
362435 219073
215728 664500
853586 293523
615386 874545
681901 517023
878716 385906
250857 427584
744365 312573
742623 656438
72197 28167
304674 190957
579455 963842
85814 832086
121888 832213
763818 830770
834262 742608
76965 963806
881651 847990
684553 524430
196708 570851
342896 241616
356404 307947
725907 492625
827374 753023
595015 708669
878989 853683
234028 300074
645193 355586
211537 491557
802473 234932
338759 176400
391381 274092
291629 571631
154556 869719
530645 781820
97385 465749
940824 310588
760951 767240
699082 750255
405142 403013
740712 897229
130276 974187
572947 878119
844702 704418
227194 487552
133740 757769
123432 97676
514138 732506
228489 619529
190846 542346
89025 834087
664915 421402
88302 267620
369652 694508
339850 212207
23610 944374
341929 205110
391930 198612
311705 260167
37847 919318
245237 454499
823962 79218
307671 403752
89881 973869
848404 349155
115419 766564
228652 289456
63369 976285
603481 459515
589905 319451
343579 593834
462839 507400
174664 649653
969118 295889
69985 921209
972226 684964
173927 760934
837854 403804
449901 50373
113442 57579
33985 765482
597790 528805
445635 21868
304547 299694
223970 753381
815300 398969
649111 311575
612614 597051
356855 907737
238761 119620
337294 266012
734366 94548
491372 914409
782904 293459
348232 629415
313404 596487
31405 869705
531121 832027
565213 904085
376555 280746
716095 970428
347905 276434
370893 874039
21134 928549
76032 91936
229701 747928
683941 338876
597062 407870
253047 767689
356303 576613
230074 233767
595767 198939
61945 169618
257384 789182
509209 906199
117573 456724
928197 708486
563382 612743
43066 958923
725141 505535
64388 233856
711826 619674
415993 448950
483727 659065
386575 600256
847892 465565
955538 651279
799180 968616
765360 40045
614062 867012
634352 725094
603787 356314
223353 749587
532597 773977
75883 901911
197646 202968
835515 802168
57634 523085
883050 910229
596040 926583
886003 691651
621339 167136
641522 601857
789620 614281
93627 287205
161741 604489
568809 49297
553861 426528
358358 626049
761610 397548
39598 906540
35223 217007
966861 478291
890453 701044
124906 526578
352761 252890
890350 692123
799176 799118
760376 978639
70419 921450
290680 78982
839558 723436
43595 828860
411483 222677
956407 652807
255841 807229
405255 235889
705349 449321
547270 247939
835050 701756
500084 745927
773682 552117
302953 282053
780901 298662
806440 23655
189354 768369
809591 733574
117444 921125
395408 674008
306490 522192
504974 570177
416720 52851
485372 756836
216628 836013
663303 922822
353125 229854
231508 483341
677909 919004
203003 859077
272882 722589
73156 549758
295512 791108
191541 475538
836883 634866
248942 434927
515368 604034
556906 742224
481996 360962
862008 885747
184167 763297
325533 191322
41274 869711
54000 334394
816576 627527
351617 232868
239442 20252
902029 822719
820083 99690
149188 822232
637026 675584
316389 430468
897555 918362
41800 949382
141271 713760
828136 892314
642716 670975
741528 468951
54580 813792
30265 70982
49517 198762
751178 756446
140661 754611
830793 673124
748221 839663
762409 851760
602479 531367
272361 274964
593134 415572
840399 437301
809344 524113
903087 608486
207343 848116
26264 409571
197724 462900
51140 505076
515844 615236
527674 314124
753764 409469
73151 620540
348884 308166
390501 228745
677767 272098
237775 851806
908961 737428
728995 428583
256283 137706
292262 85019
742719 839702
125621 835865
750352 534868
591791 352159
193709 946769
602850 610191
309104 578544
888388 701421
339762 601889
52382 909102
166759 399369
287059 121552
92220 47016
742822 666225
382894 311983
261687 553718
371258 878565
904353 673391
91413 819066
554832 632136
110205 787582
375112 739278
470100 582918
753583 794305
851598 619741
259797 234201
357269 176934
702863 196272
937548 725733
615729 582842
240511 775454
30726 237074
316298 706758
164854 863129
531495 739536
710230 296816
589998 663773
956441 618294
432078 768135
800872 430314
689590 569162
186639 579528
864968 689073
202330 762968
185449 560781
955925 732504
523058 747681
819724 643149
699116 874627
732579 282955
694856 562671
890008 737038
287399 278676
244408 788178
492158 750711
355492 265913
199579 108083
37120 873544
73511 547120
373041 850585
257270 805496
546756 43412
799659 445504
497858 717486
771793 337682
253918 233683
569374 842231
74770 931417
373668 459522
458508 49222
851054 654828
123194 826367
761409 858275
333383 174798
381606 896867
230746 142379
333387 643687
366548 730491
101728 129267
295147 182954
803672 425318
332301 201513
520284 734238
556133 273504
752937 661236
871656 710499
902777 120617
580665 861897
191282 884376
264378 247792
901736 618151
32389 678013
552780 867303
483171 38702
568529 493383
48340 869762
537007 841096
803077 307689
493389 410025
768620 979237
209566 872866
117710 882242
487446 489404
35220 882184
891324 839754
760637 758021
36884 892452
152670 87965
639472 808140
584564 931017
188995 767593
230450 257913
692907 395078
891217 833707
508809 684283
839552 618992
342636 594192
856744 930630
125438 409726
968793 617253
962620 705376
339334 274148
928907 641678
971284 396780
254298 52643
248769 757983
352313 835693
904240 714282
659124 938834
376182 229985
133648 863944
380030 309599
129510 846978
361199 481796
661053 859208
354147 591511
848290 888229
289619 320733
372249 279456
594497 169851
103135 220170
144963 812537
724057 519441
744580 526539
426786 766893
350290 891988
736257 640784
354429 866538
769968 460457
120294 248895
834770 84409
507821 838391
493517 750387
37668 960926
830150 416645
656772 485820
362339 861361
521834 726543
844083 734688
198888 556699
760973 648140
34454 771134
362457 204255
547140 748998
742478 489958
635395 600871
688195 571088
33423 382969
610913 828057
426386 658073
663209 237157
716085 438740
202296 575991
803962 267376
965229 484170
341849 525487
445490 385416
125325 861051
475733 336652
772586 331837
265233 95496
350755 255358
829702 416721
637643 554359
822645 660077
382173 46368
333553 554007
807884 520885
726567 697709
599589 670556
514562 911338
493531 683753
664960 245465
761510 355619
857210 76261
820753 620040
431740 568535
729151 448026
817205 435811
123207 565199
783915 390961
867744 382227
225587 488895
286810 244778
460487 592681
407971 652726
878395 674040
515442 685137
667663 665563
708173 559744
306952 643417
412697 895077
179964 678126
925410 864489
654862 222434
34930 834953
251835 467363
715988 779880
754862 647637
634523 462852
603329 704263
258794 549308
124916 39249
345711 929833
80801 141692
52608 361488
224336 503256
553220 272166
730920 382501
514971 779287
259839 808166
646886 354711
505997 726237
637702 531943
79862 125057
752164 539423
87461 836016
432405 422344
508252 361965
510734 507882
483236 371674
725206 696414
167342 868333
699805 901689
23474 830151
62727 533271
395547 291697
191618 218823
747682 808965
325913 872153
912393 467679
275928 435988
820146 838995
55391 469805
297596 590820
795766 73862
378024 61439
687970 933683
638877 338449
161308 613706
178104 446805
128071 408721
371456 275169
332670 306870
796924 523837
481895 687956
604686 327343
946543 688026
394522 632281
835046 685594
75741 112792
418167 161743
477433 305513
323214 322436
380217 69849
530109 199375
463899 904274
391747 216472
586387 945372
723915 590087
412853 900614
781412 712968
724308 504911
89969 879190
107497 380619
772217 623865
195890 724542
954591 628004
404641 408448
410488 585956
508735 122567
715095 136861
739783 491373
602123 30425
557554 971869
480847 924345
364933 289089
550285 622509
780925 889750
550421 945987
27330 964443
234924 125333
142803 806385
325438 320538
830606 672472
566627 846377
610999 202952
305276 196358
226904 254744
110255 977162
342921 884535
255418 207641
899142 332286
855870 966370
709668 393283
21974 836089
913643 917564
638145 848428
95074 817823
147697 779664
523422 400074
719196 449494
38084 328288
228584 284783
329315 146129
789098 755771
306673 493368
867558 710634
884042 835196
27982 851988
648191 535812
60404 876179
354085 289732
691239 336583
314760 841720
514046 237485
201801 776847
678089 832448
561662 59280
315991 261294
358554 252313
319055 294146
456109 341860
788561 907418
520477 891404
260376 54089
540798 836913
496440 866572
491773 526884
556414 743039
657750 703154
552901 928940
877488 907233
34300 684425
898297 918527
139260 691060
641118 641539
547043 509157
973456 286838
916518 917726
938406 908804
732674 373716
931321 133775
553300 276615
907216 917735
571200 726279
743072 745262
201398 745960
654136 480408
50869 140217
732174 96144
518420 706506
906830 368038
262558 189250
208098 860221
109978 515691
192964 751725
145547 161972
558120 704257
817915 313904
323368 316477
219830 214444
611973 698998
350778 905728
763958 42221
117067 765839
528423 206305
642401 100145
851399 290010
220714 489995
27978 117251
112880 900994
123529 794338
919685 840422
252490 419291
632368 854577
253023 265727
385773 441907
758143 536163
910697 824794
883947 911719
350177 295189
624119 717517
29644 803869
811026 317525
863972 674876
147922 345770
885155 691217
697768 659169
52097 911946
563206 873889
754196 558678
598879 283079
232832 134271
69770 841851
331768 649271
45088 502405
197475 388313
548998 864325
670493 960508
129823 586064
426991 308153
969373 660008
889146 830225
773358 280850
801329 306860
84933 22417
393857 196154
192282 71822
791987 24272
547974 383143
756043 677157
672634 624522
848409 950972
525292 515192
90974 561156
125608 130788
611773 825283
251325 272843
317223 277381
657018 254231
131375 570297
29634 538726
448929 607245
40277 961845
684837 455995
205407 21061
669232 596179
678851 942580
327225 374496
335906 253188
299128 454932
853148 973291
384515 310076
399935 534459
517676 422711
80618 529245
432746 817907
79400 134959
359622 363482
972075 666450
718737 857235
729743 797513
821346 657012
59256 970318
461363 601187
107827 382960
808188 825845
332439 546618
200019 713827
583582 661170
246856 797347
880862 636047
823283 436841
650997 811717
134794 757002
140008 470567
157394 852901
354021 140979
284451 440671
231099 624363
557932 921277
55605 836364
833942 422847
536391 234508
124765 567217
508425 358133
513690 923423
860456 644145
961648 193505
557130 743870
222802 186727
783752 445610
598391 453153
248616 503532
363117 332990
566776 304586
33899 782996
247634 266299
40403 532932
104914 515071
879282 854869
282463 242010
578369 266270
372117 311874
285382 61372
378662 279637
209496 25736
270077 666724
77957 130467
487804 278183
718877 377385
942565 626625
25186 884947
202009 129224
377541 231257
379668 82963
355947 621881
607057 203571
457475 772647
921407 860691
48789 149102
543668 738000
36444 240385
565983 336893
667408 926747
920172 115018
514573 654101
201966 861788
829408 235920
754448 907406
72952 279103
380354 918616
690656 147364
53717 976128
682523 369913
941989 563385
633638 579767
83326 22025
480547 885402
559541 457861
534781 768721
75367 546664
698541 429930
76636 548214
385567 337742
559763 888151
199000 840245
939961 712721
302781 188025
694963 511304
249025 519728
22260 950994
488937 490858
894083 692088
229007 298485
674936 483880
210376 458619
329194 277601
53446 828048
371568 270898
25941 250000
245575 532710
757964 624857
384200 602222
755775 536695
210903 620069
679478 83053
832499 363113
332097 439958
311170 642333
417918 587300
217691 497625
979941 240438
257154 50451
759243 980122
429432 224578
562087 700753
705399 511232
123988 962509
762598 969348
673859 922419
220406 777096
562021 918698
201522 763223
297516 185609
406491 617351
789085 910780
275493 195592
589529 304626
769290 841143
891319 732411
230170 485630
356434 217319
108311 953630
336622 204473
280439 446628
453145 51484
21920 859857
948643 612544
420878 670578
317049 517704
137783 159554
857199 369877
830854 350827
769462 278501
244964 771922
658536 347455
836242 741298
946281 269120
509694 231413
729775 851170
428936 596124
939945 566968
132286 856033
513849 637604
777089 932683
912768 758708
95140 128464
313139 620149
580075 794979
635799 147862
544900 267546
759581 980258
21146 978522
310295 592272
334768 593299
45670 435297
875161 706155
123506 696089
685463 606886
914356 673787
754743 853295
324194 243420
737496 491734
788296 735785
843519 380861
810456 452609
908408 717530
655700 928663
337983 333356
911293 462016
801851 437737
193476 727257
647877 843884
519609 212910
326617 376266
636753 544298
202673 480989
196787 561134
103831 773859
179675 884900
652789 415547
541311 717108
277654 657385
737412 455201
349499 338241
320576 872254
443284 81482
804064 560760
581216 443744
216000 734013
720434 770192
197079 841053
166022 883314
916192 672426
349110 303036
616448 260927
330980 165232
715257 216250
767327 459975
258639 50789
175686 214773
118874 797122
494847 49570
192355 566364
517085 679045
774466 701591
259053 451156
368296 314517
484919 33864
944774 618560
550630 257284
212787 234814
297349 413208
28059 902668
431280 595937
530705 771349
668890 255495
624336 241345
592900 618066
253497 435814
154278 497381
767061 272423
419328 803963
219551 751293
741747 479470
626083 963836
214998 495094
807687 705201
528666 341762
833876 362825
328689 276672
773226 22956
769303 271750
829937 669725
834385 416065
267641 799158
403201 633699
51121 150047
600825 434487
21809 932082
157956 670270
245154 216928
519565 735589
62295 53580
62397 522524
56969 410093
945304 629347
881272 706426
965234 389173
727567 433064
342169 596834
629478 167746
231242 483224
464217 170065
471783 333345
542450 347720
185723 764995
760704 316970
406155 500186
592814 351220
640794 769663
605465 398017
615633 679871
189513 537358
665105 538492
767376 534388
371189 276458
116792 916993
87385 846277
894735 732624
297060 799077
125096 825785
432835 496904
640052 640101
338860 320789
133034 693222
670726 961488
346158 285395
580987 485425
236413 45547
789466 638225
458698 70187
811318 448645
697501 558213
352042 237689
324434 477236
951752 706216
152538 750460
653548 639753
422668 925709
368669 877745
336927 251940
286785 451089
722171 494231
515595 602338
360643 552082
499635 861589
741404 576162
925126 364571
528095 794747
385927 238050
302004 639705
637878 238142
728271 486648
107295 639052
957981 668103
236129 754821
962637 415459
656255 339570
649863 662360
39054 141166
785736 398593
149658 504450
498610 719164
598695 383294
851670 672046
610789 676211
802675 736482
663307 844209
167009 757165
136831 604764
621405 873403
162098 671161
196479 696553
652161 716435
772048 477533
287243 867577
322855 318905
765346 750178
310468 555868
221286 500261
234824 401302
177638 448211
606048 415189
506064 684611
308663 225697
686638 373001
792557 769766
52698 198955
655690 597449
357205 550563
282218 561658
125382 846716
690147 467886
784465 746962
361546 307968
767221 979217
70125 851318
265134 274045
812731 446723
155802 894210
240774 495840
622522 250166
863798 667858
786815 901496
764317 860321
561008 637273
686097 702828
362167 136186
895187 709546
372234 747702
672816 862571
973796 399677
80340 296166
215461 698669
577516 743887
81874 88805
585423 643657
785723 395238
785234 899522
892943 597196
675837 948576
674835 970891
196070 795949
289034 774609
724429 876266
848067 954375
135102 439756
313557 543151
741571 977948
446381 378212
88116 971877
373957 300599
918276 848505
338399 647430
118740 964920
460419 771219
589057 753813
233146 662314
72725 872941
629866 654395
447363 774274
309027 280358
308764 777160
238122 755042
695797 290141
167163 871531
118587 757369
659669 802292
116810 968317
288511 190681
565039 609492
968808 337177
75907 962676
38013 837643
909840 824606
525005 364374
800655 651250
79387 906323
344090 547507
263671 44443
926629 867864
702333 170748
831134 441997
751611 819934
651122 59591
339654 659624
528787 750895
942168 707624
864788 908123
588958 934823
770963 747615
798954 136385
979277 505713
715290 532593
33774 306163
566350 902339
819470 786883
517037 682891
29149 814964
351260 221558
71778 589646
774602 294443
261125 529174
321719 544427
145525 503240
378214 623166
536869 678648
466013 577740
857258 679681
568137 427071
683758 269176
738384 769820
750711 272591
254215 457150
536015 287315
202217 799337
46134 853408
718589 812133
268721 796419
803705 799725
223345 75287
34473 962910
392793 559504
919285 326342
454273 68826
397528 604977
970093 460987
573619 225655
369216 718920
235456 281706
346150 592610
62830 823991
393989 504680
417958 369173
967042 169681
459839 884508
735975 676431
420356 241682
510724 338915
760234 771587
496290 54538
310638 503513
738704 541372
562704 462032
35890 840589
964459 351863
462036 355050
274896 52723
786328 730824
571681 45073
475287 782775
780403 884088
351846 502203
390209 248771
284047 657242
363312 219609
882810 837093
154761 848798
224934 196549
893953 731412
575504 254222
337492 358726
616897 403191
525362 686604
881485 831010
691540 722695
511392 735553
93051 58667
798012 976370
378771 57262
912444 469038
291830 802999
673850 625636
785202 717209
165837 745506
280495 810177
786960 413639
210299 698022
211937 55471
239365 834505
691096 402299
611002 964084
88415 884516
180049 520599
514568 688669
260720 424550
348835 620722
262567 546794
726916 440219
509723 414144
792596 958237
242615 877718
80958 44243
455229 355233
285550 650603
490829 575056
217887 667671
921632 713756
261867 664930
210835 457697
742458 637343
669140 535512
931535 409715
26117 856151
715081 139162
25393 968240
336070 559038
394606 190752
734027 913958
29740 769993
956379 279421
653952 665454
198973 839905
723293 587523
384431 883834
668106 930376
358198 236804
640177 847241
881264 833605
333368 592445
288385 117976
646555 782255
123457 90918
205510 689525
691129 167066
839667 411075
844787 406187
336815 601778
386847 239439
764092 593365
891294 387062
445236 25095
188991 401135
442162 852172
350264 624976
105258 230053
924197 696418
307079 928722
383648 961766
696683 335618
485709 660683
296493 803993
292533 263153
241987 74166
242601 729689
795873 261667
354808 196629
310426 218967
497091 240677
851952 390805
868347 903997
267841 668427
249708 54596
305601 248699
293238 538671
596153 526573
783612 974380
23503 834773
223856 474655
104648 921699
134436 977759
172327 815308
381210 450611
970870 529684
712781 146102
965275 379806
233995 856184
47131 855131
770358 595173
786539 422607
91489 131170
670934 336409
160145 873505
811268 460379
53179 198840
909770 680554
503354 742842
201751 800880
781809 288949
578125 863759
864281 643587
136720 601623
474399 178560
590215 712835
240103 634355
706798 330842
131802 52102
547151 829225
299558 138449
329343 167113
383174 211155
333420 598985
681573 796463
145635 959886
437726 548904
503410 706129
437168 947684
161250 951006
802234 791519
782077 545831
317288 554578
36364 871041
600181 205142
371555 595686
725516 517242
476361 693941
38684 874926
522255 357919
477764 569441
929916 711297
780101 975833
539218 291812
462924 303228
533555 41917
779645 554697
404798 236279
783553 717456
765278 689353
854853 971628
967199 609464
217114 471386
102443 267508
643050 644610
370255 712863
140725 668089
119867 127774
864716 615419
841099 889702
163133 696158
703136 839019
742310 482855
790602 759173
399937 238513
331032 247583
439169 548611
402918 161582
904098 123175
667029 874283
441068 922296
120460 796973
111951 790930
959659 661297
738021 453955
831697 327524
710412 817639
727593 435126
484117 596754
637253 564153
657409 935488
625645 964505
108065 515533
522838 411698
73569 103439
821197 403936
952647 643528
734205 555351
100219 975825
26598 835178
963578 201742
804785 280905
333939 250414
160904 858929
310649 540266
553559 620949
759480 280841
53330 146552
180863 773172
667763 962319
355430 575406
67942 917349
652436 213201
426887 596377
347757 593235
160850 957255
533737 849151
731548 485063
644100 670446
408791 444896
572553 203577
63569 217189
508892 909061
47430 158123
272089 197476
136831 158158
624578 583284
860074 682771
924869 345629
858107 299652
177493 92317
86170 880919
305275 645127
380124 951810
312717 530903
107606 894421
281062 756666
315242 429256
172064 775853
649138 735002
202647 390258
346113 509044
751618 270784
79386 971010
580616 767390
548866 567133
65705 588939
717222 290237
691612 559303
366647 979754
809530 314539
906328 918017
389168 760152
311268 609478
97671 975595
697620 641796
332693 307650
274921 734038
129061 853849
834897 478368
572940 948797
396074 208832
779883 770279
976081 175762
928004 440386
654778 322524
79860 907672
935903 889721
692345 396431
723327 834769
38407 138979
66577 109376
444816 769738
60641 895383
539757 443225
358915 366533
325434 199107
73616 835840
654733 598835
487783 40073
877487 929416
39241 200561
213703 756907
67119 372972
349181 507044
409258 610745
249986 736383
965874 414839
635124 555842
92322 879010
679251 630102
121670 595649
259444 766133
610250 277720
123827 870921
395529 206045
252754 838233
32604 830632
601119 481910
662258 331292
54667 836146
672865 954089
59850 972027
119811 102693
175838 729487
335307 259781
851229 975856
578786 657554
39684 951390
875085 905908
199179 764167
650127 313519
117851 703341
834452 424936
347274 327885
696877 273345
333157 594657
581449 659987
212084 799102
647437 339980
123839 951046
876910 722162
119311 591334
913417 753896
68516 911660
341120 328512
640473 778039
205149 641709
717688 513429
774144 396113
349363 551777
768264 629760
586897 751263
913292 717607
695790 588702
811010 87298
800227 792207
194743 838161
92431 539909
511217 517193
286120 168378
101246 180914
689728 671583
943235 723553
113829 758496
236087 655210
88271 868862
314901 263750
366405 586444
944860 901156
370183 625800
753510 638998
378720 309005
783068 411288
636185 598330
294805 788309
41633 136186
540787 741471
322747 498986
878953 818663
579578 859516
770749 342501
938803 214042
270318 659321
723404 889947
467748 367329
318010 635413
473118 333185
975738 658457
805285 708646
167648 885236
306124 246783
937303 144551
752944 556100
940996 680482
406493 286093
321784 507618
649254 603281
670621 957598
206074 25164
724690 923619
208288 824473
739185 479045
110354 769027
755954 976449
292011 782081
764158 785561
715304 375605
926336 713524
206324 716529
218968 498578
126757 975298
814514 540573
914490 457683
142580 450933
232705 481549
968971 466859
608767 582946
697662 747869
151873 518692
207704 849762
641209 567868
849195 735019
390275 275333
253206 434032
727883 407094
901497 691875
569424 263599
696440 268623
111871 340196
651208 842748
650820 329232
646285 968836
600525 456151
87547 871444
675156 532303
873463 688127
68903 854247
835778 732321
914034 825777
346998 625071
62630 213912
657917 329301
761545 979922
774549 635937
148803 836612
929558 381733
415383 369334
784619 926758
867626 891015
203591 200508
244643 764675
745400 538534
680024 698912
409030 348037
368340 726377
763843 729259
20054 530371
662110 934870
405549 617185
348258 183159
603340 448095
669156 844631
160469 702677
190914 568626
254845 438895
740024 485905
497624 878749
901552 733314
849055 962568
396287 268398
765481 583625
191594 790552
237500 758651
366932 730596
44856 877240
251801 503068
411326 563806
976029 610776
917328 692230
780358 388268
82200 143869
861053 922353
375772 254525
280025 438411
784859 924594
295277 558101
723326 500507
948826 736760
337289 175876
49941 811043
742553 460341
635546 257667
642542 441824
835586 743549
766205 747651
283775 74258
762761 979867
922349 687773
548041 618429
405099 237514
772755 461141
501602 198971
396392 182808
484279 38231
251673 468932
192812 567317
757372 594396
973697 670076
67904 47751
603032 458803
419981 669451
875900 374519
362861 804876
284606 51894
42909 154090
748528 261126
730707 896941
774332 392363
341954 287068
35350 954587
100923 163263
184466 758993
657019 941507
169367 759227
544076 739926
821777 318156
329182 245473
241481 755004
756436 858531
176078 774016
61318 211377
628197 57513
256355 566001
20071 804716
826530 894556
785612 546149
541367 678865
223863 740058
524731 176384
770986 978891
513909 290214
801863 281001
380437 301602
865150 671440
760209 569394
761912 686055
544175 246974
92652 767031
230258 754492
769051 243368
661228 418642
658033 830144
516146 655969
22091 466244
621732 382320
407966 436960
887365 666540
245579 864777
223692 467099
260793 839108
554730 64502
730749 267355
157069 871394
596330 353367
640716 670566
452342 321112
192236 766339
612112 439738
333745 651809
885754 363206
750670 266538
165228 695840
621922 913451
795653 302407
412689 365790
238890 219156
247809 109973
707300 971383
656294 936021
634083 677037
718383 471010
898428 614698
207116 861499
273660 728368
319617 602746
601503 457971
783158 491012
364441 937764
24947 957005
722393 870768
698503 311241
600907 584568
936449 890486
22132 34300
363275 499052
870194 639465
382575 300765
960820 197482
347172 270039
141852 525880
655753 975552
805545 306799
100087 827706
348924 299480
290542 115496
199554 43199
891423 363635
129542 426795
723828 375818
584531 268962
918899 112034
810993 456808
88283 835134
52701 954485
569374 875173
269377 247092
386266 600503
315152 171458
701587 192865
574125 330652
871383 300183
485064 372368
412248 811365
881752 908866
234033 841466
454731 256850
541842 367283
57597 885981
634629 688308
127187 41160
172489 698480
365401 324001
916074 672959
352727 618381
402402 588940
100649 504148
238785 40779
523863 532704
52627 127546
57590 303602
778877 297128
48576 849814
943610 720361
452148 370492
847314 834376
549933 269937
620731 697437
535005 846514
24880 901848
197780 840305
87523 483041
913736 374235
620528 166486
949522 414899
560979 808766
879779 733293
766571 692266
331261 635099
759672 292872
464365 636301
978616 500632
571547 654199
123965 413343
262066 563256
358332 899463
623406 680679
375696 157421
123882 837177
931857 408451
161913 860750
511767 235960
672037 859237
391599 650995
280159 23154
503001 503693
579423 851408
323708 639778
639386 548057
951600 697482
393190 559360
788800 258336
110378 897403
740282 784602
612215 412566
499120 861447
399136 561194
421900 308483
632550 235759
585088 676709
170448 186118
194934 390268
765595 961388
356216 301760
796166 302815
524521 431431
849231 651447
155885 703328
518702 891532
750921 906617
339934 177039
249823 54047
434128 59033
754730 278586
703557 549904
654011 949239
86496 850345
125104 799566
861086 323186
889999 405986
752614 537756
243566 287166
67142 773828
370392 115606
842323 260671
790817 385406
686402 817324
320754 303526
779093 309171
217604 720006
623550 546018
532771 627865
422358 799751
368646 650666
30275 868724
155874 893360
352172 196523
55090 859571
279046 816970
691257 345033
52032 124732
47945 433957
207480 837729
825223 400329
626142 921877
935777 731098
308743 179889
636983 849157
439782 769773
413218 519506
31977 888774
519469 341224
844407 479412
73705 858605
303019 487272
321159 508667
831128 675121
884268 831503
830985 682640
45895 876591
216099 69727
962605 657751
690141 153198
846334 92991
383095 602373
302663 821851
530262 741636
179016 721108
59495 830847
941339 565560
47906 817311
258529 445547
530125 749752
391394 347474
447297 45549
654987 638314
604940 419843
247797 733255
523163 417671
672361 74787
844047 448767
650796 471862
848971 968389
422366 60790
84333 269805
645449 917170
888305 673007
114020 565860
819040 625072
920834 918349
596142 950673
376776 738744
48332 443578
202905 216348
478799 696001
725284 594513
520567 416425
62158 915164
918843 105338
759620 827807
279093 182090
36781 864693
441977 33853
812123 395604
223839 214409
727684 432211
309616 507971
520494 890504
729807 790622
355379 496613
107999 894483
523611 413893
179020 754201
783306 267996
457389 581169
44648 858950
445060 595271
735186 902827
623502 970672
347367 739237
47871 851159
658978 919186
227917 725431
240680 583840
563048 440206
406123 361247
160437 874509
138580 93003
579788 369221
841045 278601
816174 763594
640065 692871
748888 835223
522350 758489
34828 766854
590630 428189
197318 719347
454457 619292
908129 824631
576891 653595
823819 814613
34909 841621
189370 764522
736496 482287
942522 906979
893754 698964
101777 166734
759335 294329
111555 758974
972417 289465
355540 592499
416821 301244
587525 678137
784345 928181
105577 112514
35212 781595
215326 51917
977947 411749
671887 543025
697206 182427
237606 729660
78961 123172
664849 775458
103105 223000
187151 696725
615939 399842
286799 780066
794621 302514
737212 281290
349189 872636
41289 530343
727693 410849
172938 109750
529129 246939
612290 306511
199187 204646
285248 238335
402102 641585
202646 460647
109400 892387
248104 530138
371232 704884
842208 619477
224235 862777
498874 284961
257027 685742
718972 471542
365077 220323
222360 45344
326355 760076
330804 752129
710497 723231
245915 200682
201988 690339
802106 517706
780643 924251
415555 328255
315373 277621
334817 591598
585377 824477
146187 668237
383521 892440
395503 355168
855740 710600
797070 976666
294389 99961
732141 971766
384252 493271
529353 585533
305308 197911
752796 457618
58515 461737
737491 836801
591444 346806
347989 297368
357833 491093
70472 871416
340687 333601
128844 157610
872354 649900
656393 733263
604092 271916
443343 189846
233823 284153
105558 460748
788098 944347
859440 679470
110600 459164
54650 317388
672329 793120
115268 251765
740116 93365
645112 669173
388373 275451
267922 823073
308181 427279
175826 884754
610755 291018
309788 280164
540972 363934
130025 848739
912091 133443
177078 648671
361121 631379
613829 355047
267833 845346
919908 838730
879466 489136
437873 320115
215431 68186
390804 243624
623923 467319
429686 570586
322441 559610
952768 598959
121254 691380
168900 921385
78533 356323
424026 301874
732522 499878
402570 650189
279382 185122
544668 568638
837666 431819
449332 600423
150629 961532
308010 230973
191216 756684
785075 642583
576642 901293
160448 884616
101359 567568
315935 268991
860865 888034
257808 789684
263416 202087
65707 308542
174185 816888
245085 465019
714108 919334
545801 695405
101964 170463
551228 416453
768194 298140
109032 882732
888343 736064
41538 425288
110695 345679
652788 714051
290342 279348
585737 854987
132059 757016
316575 871253
119454 93940
496529 715504
954034 735308
590179 888771
783910 912940
960512 699909
621328 792233
357481 249930
324725 483799
890183 920667
244489 756045
281756 809747
732044 453604
774965 911371
184955 79524
562719 434848
516838 701374
325124 260160
261418 41160
34221 419076
653311 815231
439879 78564
844003 470762
745500 537097
902727 691550
51110 835838
365381 308309
911647 371619
630246 186400
588121 363485
440676 210312
914347 327901
387496 598505
915492 343142
348610 621233
781579 385580
530421 256584
932798 347317
806136 563969
345311 623786
636916 144301
378914 752043
48657 846839
39862 177579
128185 576779
590855 927666
754666 406669
286629 813511
632249 580140
78057 527853
265915 189504
103803 55775
65160 370486
305077 556695
789353 509477
63157 524834
761451 432038
367040 875184
586349 286061
150525 696886
502664 596593
453295 96181
208920 860741
873712 672807
766303 634341
464323 782851
56657 457924
755557 410301
651954 927127
248839 675506
449626 371298
645179 809598
56912 252972
884988 728275
840896 472884
37136 924386
43423 136984
378374 906509
797210 973153
875660 673518
214473 215062
321086 432506
717377 434768
788512 389870
472286 582835
160840 740420
309404 193654
887751 702874
481452 448922
828697 666856
122119 833029
487173 405327
53626 861073
274917 275150
345697 289169
522637 587613
599795 927993
210287 872174
452647 546401
395665 212068
251838 513617
830319 316107
34506 142525
541206 293717
615451 830760
833020 688129
857783 827379
111216 123979
938557 325531
216192 881118
370842 285721
544205 832655
734612 554426
664180 516219
292697 595839
330168 277980
813327 677611
787348 420150
932263 612582
186094 78988
357588 940083
293793 562696
475864 693668
90169 71284
757381 723196
939992 259701
86606 820136
773104 923065
634030 152743
944840 628468
798333 89879
163566 37472
598942 38429
263707 674085
349492 612885
235776 261389
507644 920731
652022 552932
763011 574278
800808 791523
824375 279219
669608 873183
734260 316982
526889 914066
295124 562175
725969 922077
138361 691078
761957 828965
35089 953824
152729 779845
38841 188854
229524 845488
661037 654381
464613 368355
577967 41011
924741 448172
378679 281030
444589 534944
334248 565544
758117 317655
722352 585375
729367 422112
765595 957887
99868 845344
557086 752620
31462 178227
801162 545194
263174 55507
198096 45732
553131 504539
823312 361808
378546 330586
219823 74437
806381 406230
806895 256357
736370 728277
405270 366134
959163 665571
229234 602617
684122 693459
327973 622370
593007 349142
701181 373323
478005 937600
540894 745573
489632 845163
940782 626692
129791 691896
695864 560601
714749 265963
702999 194708
588666 679179
524373 562358
704231 550358
550772 622520
430973 924319
466903 334618
262557 491201
299958 137729
379598 254104
599698 31515
186266 450187
366610 884487
831362 499397
696719 254010
501331 502966
139027 480444
553360 692822
294576 414133
129610 42306
763975 979599
691178 714967
289608 544425
587361 443923
881416 674471
157643 581495
915747 303709
787138 750115
868349 653629
521955 444586
128377 855031
239348 445344
955437 696793
251265 840518
221913 752991
753730 438615
614110 57675
57992 203294
608021 433439
556950 448149
500329 596715
768256 753907
351112 226967
836452 364951
689109 433433
474397 764839
648708 683877
594739 349953
800723 789383
343264 178495
56943 980129
138938 371228
457729 904609
623639 376832
338262 278673
458092 347715
226017 76540
84428 92649
365101 730245
520407 290200
500164 695801
471132 880168
480223 40778
826836 836933
135302 598814
412804 219531
372338 110964
808925 87380
735285 805179
471292 263545
941111 732837
445018 671669
694336 975715
547669 617243
648106 925206
140553 372674
561797 754264
718337 921977
785276 923927
255992 828552
181095 521815
769948 945930
134226 95682
752790 426773
260943 791147
254513 807289
27926 180527
469017 898569
568201 844377
243117 875289
244806 451283
270800 134485
337342 161590
273832 730478
939333 328184
390947 426467
554401 708451
901477 408221
275528 90539
891580 336300
57529 147182
593548 835683
394758 560677
290580 811822
781384 745068
614006 965785
130225 429331
232475 454245
666913 844739
911650 824839
733380 519264
44533 822966
261197 794936
425557 597227
540931 389208
593821 197578
368606 288887
169862 759689
692639 558087
56528 813053
861294 663685
937702 310977
945576 308817
253353 274712
183669 410662
796276 782927
33897 239026
633277 720680
24628 854442
594968 949892
425510 306597
514597 733387
894804 409693
274870 742269
820099 506894
205362 23353
654296 415775
641476 847350
250388 515005
236919 661280
696796 256301
622510 726004
28706 298284
485676 576163
318580 769321
785428 294477
785290 936556
690650 803635
832193 687808
648494 812505
129888 969559
239691 42005
706724 479658
434331 63611
747790 695328
402827 232524
241532 765686
355360 847870
173647 154420
245567 417539
812797 320178
270942 432946
310011 178878
84672 839781
36890 872725
426552 925589
919388 694548
405535 363411
135820 958906
961126 659329
95415 157519
172754 102013
726621 374625
191461 181196
554833 742502
485305 276854
308704 260719
592698 394768
402026 288936
375382 949420
877638 673672
320880 510709
365949 197231
249171 794430
630391 590669
40569 269540
601300 683810
201812 857331
358676 927395
485321 404087
656013 665687
759035 756028
155401 896292
199868 882499
630583 766520
242678 783361
227333 683819
81692 127115
922023 580737
637941 766878
583541 675647
944729 709394
435010 922288
801469 492790
181549 885029
79144 921706
267553 274079
68577 589273
649532 936550
86805 147747
357382 493847
225473 739290
44473 654166
802202 544916
211192 740438
305159 635625
667569 620815
138107 829728
254900 52828
738421 643839
405579 413658
77774 297813
964926 353557
738853 456579
325513 435143
820719 939890
193117 476956
675959 393003
480754 574636
542904 290720
252489 432679
218989 718675
825325 314321
788136 412958
386762 295396
158910 658324
354996 579269
457427 913123
351236 551156
803274 305863
273118 659415
50762 259112
424963 881609
879136 721798
781754 252365
632029 792689
617626 424140
728024 445462
765191 434854
858743 295565
289611 553098
594504 949152
235624 854039
105422 962841
454164 279763
291811 570810
289776 926503
479994 576222
752641 277930
634971 279532
160818 206456
640909 444448
964764 618192
744136 505393
215287 729155
694382 616906
496359 225112
695412 608406
776561 871626
250243 701765
133515 828829
917017 735235
302541 325178
881604 657244
274305 820802
310430 593977
250055 748775
292411 573469
668612 931465
934865 382497
171441 696088
561320 614560
351364 826055
802030 751889
150103 386444
32718 677222
25369 795138
309736 500506
353164 228253
742462 795049
716365 864308
923162 598967
122891 876977
116106 800097
742344 460394
363082 731718
628403 738502
722490 768635
96148 888601
719466 685802
766443 374506
881466 727847
741030 458546
243207 680176
818419 651947
871774 867077
598999 283806
818299 909724
609983 825127
750173 541083
796403 281800
53311 908277
738828 455270
99087 206905
771578 597450
376994 598770
559157 889306
653472 599445
832489 748794
60969 838889
922889 721609
911388 721526
327758 323784
855687 343647
62217 773984
865518 659647
279767 719236
640476 550795
756040 415765
290957 80238
636711 689602
841429 438894
50466 971651
832865 83373
91333 38745
888514 675049
716072 218626
463073 554492
34893 828991
515910 630805
809662 669498
360103 253949
524885 759555
96396 888958
406329 286177
149873 908668
828331 423329
466744 899920
317449 219632
768093 367733
593069 392023
19511 124711
200926 577738
524167 738130
596017 443887
377683 600372
158001 583977
198901 46895
773719 321457
415495 908980
977300 337262
645189 329312
371190 497069
71456 977416
534900 744006
455415 51103
255974 706184
746232 573265
562872 737510
680979 916594
237029 718755
711702 385392
849344 656904
644202 645087
490810 878496
689969 410715
378125 740366
242793 262915
135410 613987
788512 753696
698006 460369
31141 280005
525577 434471
21206 231098
45025 861296
783164 285820
88736 80046
247264 477147
44641 323428
777363 411534
252867 55731
716052 324339
213322 617859
471013 398650
452552 595173
77488 25695
30854 848582
273653 132941
282309 32710
833732 949520
883580 633403
204495 861556
177940 636347
974861 696292
253920 671405
666991 816390
759578 651701
687758 460669
238291 500875
854572 709917
149794 353658
355650 291580
321588 384332
812804 400090
893299 482241
257757 48605
827000 629941
769495 31507
255599 259272
393854 631109
701793 380761
190221 693910
265335 200189
247945 770257
107409 565623
515558 723811
520525 735911
899133 671934
614698 884167
384883 253035
280247 742704
638477 117023
30459 836054
225589 753312
317971 641180
741902 677673
631799 162892
377269 950765
790932 289685
42840 34753
663557 610724
629435 411623
949194 633015
194644 567025
787497 509945
818839 901046
532894 188789
920339 589543
75262 545921
28497 807553
296580 297576
353747 175610
770775 524704
361491 894245
972193 398117
942178 624880
673338 530369
26940 859474
164291 655292
741916 675635
344386 343956
646604 668495
551158 624782
237986 824226
246768 72095
203306 463576
248551 503330
237012 43528
638666 940563
749854 430728
74986 137161
443702 649717
689964 774655
877582 858053
341010 330800
934424 911010
342227 348530
103858 508314
316922 557845
305612 146485
65370 914836
308667 224925
617996 192788
104293 364297
299666 546125
92994 56458
740387 794726
822193 333004
518771 835782
542325 399487
552216 710706
169046 740133
352293 485509
38590 978053
887972 680000
389668 830967
459527 629698
765757 833136
922031 730125
455844 922445
357601 625793
108808 592829
283353 468763
699420 546027
670875 956600
637244 943109
903667 413929
62903 528030
621991 913604
356019 249089
412588 335477
72467 61471
644300 963880
233757 898532
666592 865211
566284 645975
684820 905666
30788 940562
750254 570730
951350 721029
407892 586046
276820 321282
793828 750025
353181 187085
595927 421325
225865 476257
741742 280847
966031 535379
244891 791315
942279 567640
728129 865415
21821 977288
478156 689563
562609 44462
507735 54074
438084 162442
115967 128168
397557 185559
533799 743659
604106 928352
96049 201042
891852 833951
739185 456579
464613 593668
841964 722681
245568 211649
979356 245708
220366 598194
66812 534741
205387 31505
29217 867953
725423 609569
29055 388872
258908 775633
351333 336244
848972 661551
344294 660132
55126 843389
195565 388971
590790 484901
438938 594963
880895 608526
551086 478185
311490 602039
444885 895173
847351 286620
541195 719057
779284 381432
119908 131562
261645 44518
305124 226803
281836 438832
296437 588263
447515 544294
764302 632222
128652 578663
113680 86808
313725 263458
43545 964498
624341 251276
627298 956957
727508 411894
57420 242120
47381 172843
779104 464234
309847 576236
462572 347477
288911 415947
778065 295934
293399 791379
964133 713507
851108 397786
653257 701880
151605 927594
294474 450536
893721 407547
113332 517092
287533 692519
406004 392774
974443 614508
854101 331595
696296 191532
139282 833370
784808 750001
953121 691396
427014 879586
40949 134303
733887 533576
334271 329995
59833 428978
495815 863315
917139 918014
796179 390304
386502 212242
573844 654702
322295 709421
342929 651627
755308 303871
774445 922255
754409 619522
295026 595698
953300 351539
785637 491547
304658 489431
374098 154361
552374 693925
759052 265817
422885 311174
847949 956699
196951 461856
893031 406409
212492 55917
772144 330202
86114 970355
50601 915595
662358 976832
864046 889816
250612 746827
53277 898590
182889 523239
689235 565113
739771 457406
120073 368994
521600 892441
362601 499266
478710 208118
258907 99546
833838 420260
934933 679795
830276 411257
872614 710037
131901 619233
221473 84778
237213 852481
340566 283019
515193 435657
63185 826079
836291 414667
727118 437702
179290 719599
121185 837662
616392 353660
803588 966926
873122 77031
179710 424049
832951 898688
185897 407318
326270 148075
594000 399998
330660 560462
354203 332412
81487 945023
253093 504871
305994 204022
361406 292735
756572 639708
755509 787361
352440 234675
303741 609198
937395 723517
968122 321885
29167 816393
693622 336307
248885 464737
792271 841520
179549 82824
129868 972178
612812 813707
220984 202533
192024 631810
954626 188559
450267 166391
260108 840935
604160 396729
273769 793251
179416 89470
51611 200165
51202 882833
681508 914969
530380 722852
336625 514297
616740 399129
213127 703097
364952 594008
259934 803983
184987 951716
236053 630115
213922 34846
148547 43758
349465 592845
906529 713073
870008 316728
383652 188494
980189 612482
633722 845398
317219 266355
864596 668644
652643 551719
689681 710038
43121 862149
726908 321588
614488 593908
738413 753323
188630 176644
799265 650373
67988 959360
68607 829341
232009 683319
917236 379267
883731 814053
373040 147097
721543 970688
303960 584205
113504 712315
332871 563141
523832 444164
273496 821452
290713 465117
944774 682601
184006 680459
615051 893380
788812 925490
185216 606568
696768 258631
724184 231775
968558 393698
48833 174298
730585 802212
908552 684104
669320 341181
617226 766065
638152 553672
246966 815040
223633 914702
822640 678806
631621 337571
790003 948761
944393 695181
700181 177401
723592 501028
214097 731010
945386 906389
795983 517108
671505 844818
260593 679743
722139 613185
330706 632790
333387 328772
457469 99675
314526 928183
157651 871399
106036 841697
45105 816010
617150 682708
422803 439123
482822 876006
267473 41399
825984 691201
835043 495056
846263 660867
651478 782069
309015 539596
451505 919064
859509 684566
176527 733204
446809 604940
888132 917734
251999 420869
516302 773973
872911 721071
618143 354484
570502 227428
637596 664864
175587 197727
129372 377042
718908 326090
791289 723156
576334 288605
876125 328017
495697 859148
687657 630209
722991 497784
331297 555539
577825 510795
570743 660628
591485 623781
386182 830999
871272 410113
898144 409421
693767 328604
30531 824909
653678 950314
587351 184917
785202 301625
581710 793743
155226 849539
809971 670307
253098 417044
289604 125011
460200 166941
207345 745714
655559 853560
268446 821374
314748 171075
110882 882625
50008 316008
563633 730811
228110 199354
479936 781373
444517 389438
455144 773200
348221 338901
396698 618447
640651 52262
101250 625575
342690 160397
868274 485603
805611 516761
242442 233629
313439 248851
653226 628939
535452 444179
715985 455297
230936 484248
599605 266757
593365 422881
894738 838418
453420 920328
961229 702895
137880 560391
525224 178538
282400 786628
239433 492798
921360 349439
378998 181642
416002 212645
72450 928302
297246 250602
88144 547623
129722 859714
912111 341949
205962 642987
35974 935943
114378 103727
116626 566806
910009 917313
302751 782179
799833 304926
257703 137428
919050 325966
477629 392890
99070 208139
725369 234736
480696 37565
860174 408812
66214 855487
705132 762079
837962 732841
27620 558614
438778 48660
49022 159364
135780 863813
296127 579394
580113 838758
338319 605487
360134 895926
659521 617218
642573 456394
326918 865660
95165 881257
414552 521004
111769 642389
863273 710538
91725 61554
580538 830802
967420 598082
690453 842237
85999 970273
897283 692047
252220 54933
618458 798651
449617 543045
104749 778430
47963 921830
624766 789971
377803 176051
733380 827456
842249 402254
742432 484884
678236 577313
194313 883951
807133 734488
38047 212521
198257 466937
374213 152219
447205 543244
406739 585362
979657 659713
219771 716742
889725 840725
88140 880729
731807 449259
278676 567998
35348 102700
257774 848794
965557 597916
914402 675141
974794 372993
231829 603470
66652 51141
718224 970257
338436 302098
705522 625298
83389 96349
798883 930835
723334 264999
554635 743639
454706 916030
490977 371904
491267 335050
145931 121945
263189 829204
886699 720713
678271 879655
516027 619865
417448 246496
496767 572108
253591 460544
871633 637626
848279 722237
487359 684862
552690 956472
180272 518439
92966 567382
608546 796379
311804 536555
747603 780025
389532 162216
765497 399617
148226 697400
397474 561580
20995 404496
271189 279787
144313 785586
927534 915635
80464 125603
646239 562072
628302 652446
647667 775561
384858 316450
700862 102305
596753 594141
102150 169542
719191 96986
563349 878058
853127 649019
338841 598522
964851 717753
630870 745082
687939 600132
727739 407863
401986 890664
319018 524395
785401 748688
976491 514839
214404 31391
871003 848981
257307 683844
518567 796491
517926 515235
832902 405608
773529 940763
41082 139200
74006 85358
138740 958910
463164 556023
609479 414966
163286 632182
463306 635065
973275 601325
660610 935712
176140 818860
406923 235379
947331 160672
99414 355849
560177 699465
742264 489120
355483 248194
35344 684457
784391 92301
972400 295070
54215 868213
486444 848218
605262 769802
372833 914823
161258 874930
967535 187129
733627 393117
176879 696857
272347 817693
245317 598862
807027 749434
281002 758813
626740 962505
978562 606627
328789 650472
760559 398817
760564 724987
53488 910112
636816 338736
815193 839995
820016 608632
629809 951307
836583 897184
34479 660142
943978 367974
99446 274470
732760 397064
96512 804553
152760 547974
319483 513946
439403 660515
297323 558427
362739 871863
737183 797973
971276 221130
156100 851377
723366 450102
90940 893502
618393 588743
651814 599866
889585 920012
844830 834521
592892 398396
676081 774225
397183 604467
918594 412336
82059 935180
94430 531143
261836 252749
202075 249624
737040 550373
965173 657052
602583 46554
102545 914060
805935 385823
603661 466214
478832 327648
203819 689634
589636 205672
32855 97845
207163 875675
574112 254437
759876 980209
729811 239360
939944 724383
291230 581953
259936 458617
701415 451967
654820 655773
210505 925843
294002 561173
420620 927028
969220 650944
375122 739975
304698 326299
703929 580334
75745 301064
859065 629287
872793 905917
645170 81151
780882 388159
661511 787479
306006 242230
56504 906388
499288 879817
823177 95413
27702 294929
626336 335559
813201 410538
32067 866964
409853 612632
758344 449429
69438 828920
59166 913312
842846 372056
54401 255782
954687 721555
637264 554546
964179 190622
199752 462809
122512 721122
755118 663757
681360 690955
198015 717375
695450 573792
81546 940862
605866 202149
577599 428005
388556 597780
797451 738419
212906 215288
252260 463083
674261 262379
551770 953670
934529 616553
470733 569167
872709 379626
526100 398592
283356 191670
163573 175362
110693 233377
111654 103471
610052 675632
153084 704376
707780 837429
707245 388856
262516 42344
453600 626638
686801 602268
137839 400191
319063 269288
728850 529668
46599 141754
406040 40333
136195 806612
972667 412562
975059 670645
731182 406532
234441 840427
90896 557321
201595 29434
64382 489297
838183 725489
118927 357220
87744 841581
894231 411350
42722 810161
582614 660650
329532 651046
804213 229907
517225 319143
92022 349018
491848 861373
830563 419009
343514 607273
733786 392336
178005 772416
414684 160940
375794 163593
509323 593968
649568 353115
30130 87418
114502 649038
210851 840284
728822 414639
911674 670722
737658 675295
344709 627306
528305 514239
691803 722082
58812 464019
632212 600266
693861 562694
326392 216810
47913 164438
718218 835419
951085 349017
722665 397489
111885 883235
511124 566146
146025 551725
40999 836966
971640 443777
384318 720128
148837 557831
705771 775535
261581 801834
489866 713206
857236 686573
42579 930483
202265 697407
946432 686860
111240 804451
870102 892105
814865 271011
396457 507020
133157 790326
258692 821989
765519 956134
967568 617524
93598 818028
117902 133311
778103 708327
90206 154517
833339 695408
611664 412896
713337 398854
768595 746023
436810 937688
517568 313734
671806 955119
397510 508691
854790 336422
866576 381901
193574 564700
69005 111174
52826 885230
509042 287917
101688 901524
692673 727907
393492 426459
801380 487711
396512 492549
432742 315388
674594 229622
703562 483743
545365 917732
371236 704166
44312 878897
619371 758355
696646 523485
819492 654873
740839 745313
155593 895140
727710 758643
650117 612225
670401 941424
615760 777005
57586 978739
891483 102685
197525 61259
842752 257802
296503 804870
193883 70586
364999 642001
70018 547916
711126 859337
695124 905502
528535 790308
615651 404835
727155 409324
669304 70776
629647 858691
160113 858218
72065 304623
964934 646697
766992 399112
201530 713909
470733 580872
165829 640772
676236 486130
59402 920227
691422 221818
33618 871203
354776 503755
362407 634607
524052 425791
352339 239433
331247 651522
702927 103777
570085 875975
232283 853176
403795 288077
915331 720564
511005 776655
731449 762968
591457 26640
499137 862800
377398 330827
36706 803042
496398 699592
90588 555646
211180 718923
226347 849568
321959 274950
167164 135366
78243 850809
835067 375797
819305 645567
655514 626707
361122 871945
380823 899634
748874 757818
174552 96864
264360 429992
851840 631371
799325 420818
147530 882228
237145 39630
460442 630941
550746 623540
128242 760962
59293 436267
875452 727817
196613 723073
651270 615373
565359 907387
863179 889549
193811 758047
919178 584021
276638 84874
222547 759607
669680 869170
623452 406132
899143 113974
321191 536442
671298 527985
66473 581433
311579 784696
471905 105785
622258 970908
839955 366459
891006 700992
122532 973473
72239 25531
135641 967179
268720 660840
230571 69386
178978 696600
528438 740757
848460 346734
895337 399488
149542 562889
965993 692526
244374 504553
835546 803985
456276 98941
65971 828732
29325 346592
180262 87528
351589 823229
780387 887287
399601 590428
208049 708868
351064 828020
533851 285849
292695 88295
360810 217759
245545 503348
309770 210904
95150 198867
244606 602236
562483 979185
505132 47250
697293 907926
709445 620839
538953 745172
23252 153636
192976 766023
909563 452412
141839 804888
562375 808058
138862 487500
953971 197576
635222 149547
855437 341434
959151 609281
943092 263272
860704 924562
725387 868874
437275 923265
538460 302167
136448 756777
956554 694245
816632 508682
902517 691568
495805 92479
281016 240391
710987 209996
574513 922218
313277 172433
433462 903224
205938 212498
71486 550760
406348 286747
567732 651833
151509 908921
84276 829715
372230 304988
704575 518861
649190 58382
141762 951218
101971 213605
548469 694497
197920 191939
213032 836796
216971 726066
799618 789805
646516 534598
222561 748431
762895 353534
351763 619419
207495 689776
75684 100077
88022 28790
661183 777086
175653 730223
324298 611404
725895 512057
783742 301566
315212 524498
342670 272766
822135 742338
452385 361829
104332 892106
653307 427386
198598 840502
191138 565982
566556 494198
959371 694594
785946 729308
140496 458835
24983 805796
567492 208315
872378 922059
85278 830619
558767 441674
215850 31054
316575 589410
722419 514546
320776 848325
899207 822849
807362 251101
456190 772779
105225 904431
393931 310085
676599 426798
262525 247320
844069 452703
118699 136728
43921 908505
691661 555730
579209 745248
589443 845456
686134 415011
399904 358136
331914 651559
353695 840184
64029 232734
262361 801249
269061 660525
625657 696127
259046 450795
192572 724898
203417 103941
518657 59323
597229 305084
137570 602907
377095 416116
825821 339165
231784 844032
116201 839188
347318 292123
362312 973689
530759 785630
507102 594844
255296 425617
256130 214789
540046 745518
758476 290301
82817 103016
40877 950164
126235 955917
458357 348442
797827 794466
272594 50515
415508 522286
756075 660032
713582 861075
157924 587110
724070 322027
118594 963714
450046 663362
842126 380632
149640 912527
219051 484178
327183 929312
557014 897378
167265 139144
751153 815890
702625 449395
184548 769247
776972 528143
718775 431923
116697 878651
622548 319673
499417 917707
921293 315695
530169 396154
307081 299171
341608 326999
468005 594011
447413 33169
655450 785353
465994 171612
532263 742708
915071 430747
698048 808425
959617 416936
636777 636357
302820 280047
542227 735842
777389 293124
681432 387681
765349 412303
194415 722850
920634 336103
443520 304581
152830 552481
673814 333324
718140 690128
778949 389252
972962 616272
250669 701327
186074 527859
811562 839224
782771 304597
830710 737143
357252 247586
863573 915395
462381 193159
391440 334109
511888 884701
475792 204382
861928 732558
760841 408965
332728 561003
37752 439838
696726 128490
538694 596125
723199 488709
395934 356254
768332 533958
597945 764519
273996 728646
253371 416151
775803 390904
565422 897057
527782 291622
70903 545967
423151 597724
501369 667551
337185 594457
43098 242934
727532 410328
713290 464563
97981 892782
145555 833113
767435 353271
113013 719194
657560 791553
442363 610233
137432 157368
772786 375106
600517 956917
358386 914348
86902 87646
626640 608953
408642 442324
685804 679681
318842 279332
162505 921991
954759 610987
777029 379431
523205 765315
561710 429788
775882 295170
743786 492681
852158 708543
281366 787481
665162 330548
381774 202433
855913 828958
941662 565860
573567 226907
25300 962534
134596 791265
938110 695990
341223 860742
152822 959712
173660 421420
870232 916169
673943 878535
130252 126775
344147 345656
324485 319044
807743 542332
942941 718621
709534 970039
448802 90747
945689 902814
25148 881282
772553 942955
263794 518849
301294 324815
783955 734473
775216 529510
914818 699988
290426 659823
583518 906116
763694 358954
196839 764535
560071 438677
316923 262998
84431 828647
453264 548777
86786 81772
695399 299673
357877 331999
61892 388634
816193 801382
503355 779065
893938 729675
967370 295638
553998 274718
726990 494591
772322 405457
907012 673006
67953 285676
704292 552592
947182 564589
567527 740206
388329 425075
519300 763274
501600 89510
256034 190429
769818 628292
249372 518006
370220 698768
243813 785603
300926 540534
280263 657415
601194 791337
782419 922123
632129 314206
792469 641640
344926 332362
744779 538246
781290 748955
702889 628838
126197 826570
788727 662292
882358 831249
351818 230447
171745 147343
766677 631652
393702 183978
133939 594406
568038 205939
521405 736435
404616 236569
829611 421418
565613 463204
766100 979270
113085 458332
934383 412690
826841 944131
74720 962006
104123 318835
563504 561479
123205 629178
522967 414464
600591 529749
197330 246740
631256 479035
31196 826152
643695 271129
364482 300109
97784 814841
111365 973005
101066 972283
162132 86999
24288 948462
725218 506551
685779 685333
457760 757227
925148 883352
531366 722464
848791 293348
318398 284944
822663 313196
828529 501921
325351 322201
117636 651132
354999 179067
435564 410480
166875 700974
885929 331305
160862 601817
22713 340459
784645 898726
574927 655232
76502 922016
496544 71499
484286 215228
317794 196803
757429 281232
837365 430338
87711 861398
554573 693573
522666 360047
644142 773122
742399 876861
583417 194857
523307 394428
784707 925684
60551 450847
178613 722782
684455 692300
490040 596512
497454 480718
380086 80292
969928 413542
773599 246872
336549 213752
781830 913008
701189 487917
305121 425545
349503 296624
92949 44089
911656 917262
62119 212670
522508 240953
484089 32907
104608 618905
748421 418808
240473 43238
369859 737193
401639 237204
493982 709636
653683 322068
328587 623808
382704 288536
842248 704028
34186 571702
764890 399813
505413 740973
344182 241169
485667 685971
634337 190520
882409 844576
314233 259090
319119 707785
586639 182939
881970 607519
711900 469372
434299 56991
221087 174065
119808 89376
639123 49839
289730 656792
54451 146222
710840 774212
174988 731784
62919 852503
724889 880149
320654 240003
385746 612878
779493 382286
879791 671678
358025 501766
241769 821804
509492 737704
189050 787067
183259 559417
329865 513735
747134 821543
331385 853993
704705 166460
742683 475836
261641 418773
745266 455238
164082 767307
131344 855923
763059 751017
289850 566859
953646 186006
25088 802516
570942 877009
638309 637407
86945 859835
413777 368097
814587 398265
91673 548663
530180 201344
508938 349063
368566 282830
303112 638693
306514 778847
870838 721870
360366 353298
211364 37288
580247 478491
368518 646559
81195 25540
30675 857488
676564 588422
516341 834973
462467 616689
925687 868149
204065 626330
870987 409165
265943 274175
686580 572939
299374 559239
553018 417951
723912 450587
89514 563517
727437 435361
519290 728668
322097 558253
716322 449192
122508 878423
67820 910595
282707 125773
488091 319402
814700 509660
408792 478727
93243 947560
253203 506508
686040 355546
741438 758124
363033 261461
195289 794429
308246 612052
837568 665327
47258 359947
315183 870355
331288 441875
422573 615265
611382 298173
592745 320984
119645 652164
341888 322717
679008 345714
104683 73740
841071 380901
696092 585707
493330 596150
342064 721303
127206 791044
427961 160111
436946 560930
512552 289380
590775 595698
351756 548375
618498 682010
347800 197244
341624 350002
511145 900726
950408 737556
921436 649899
213015 468417
580734 659092
171466 86253
140040 53335
440454 902394
29923 873947
896333 704205
276072 462100
66943 852441
755272 442061
521489 798214
924676 671649
615131 880690
696620 907929
914592 672248
764101 588611
409786 610989
258764 211561
671777 947720
798689 525263
225058 199580
324701 173233
257985 809293
620471 911371
650995 554611
39424 980008
229522 830397
48419 873204
42117 655499
655999 634691
628364 599572
369693 663764
36733 269453
723749 502652
779714 445639
833792 700707
369628 918657
54985 930419
286870 555932
331631 651378
286590 256401
333650 202134
758959 979993
197039 842920
976148 367001
88285 841360
311208 776107
811638 743198
614228 611368
374729 283082
25915 864560
132116 790494
295073 558324
608488 202555
755219 640128
337294 644483
250516 759222
235969 825939
248825 845358
567333 728440
272062 189668
390870 604348
46553 364399
296151 156013
191014 547240
679292 232190
161281 921720
284612 279000
84822 478623
667714 727208
831292 898925
121039 967018
923284 448807
881580 705811
214419 63185
658874 930897
804912 514611
137608 446786
951454 605935
527050 444804
701957 249902
805198 515832
701865 332099
29626 958840
220944 46081
807554 407822
601649 928631
678840 844363
728414 429890
685301 458897
897295 927413
831427 677603
56318 466993
361506 872184
973135 526054
59082 915389
778055 837652
705360 482004
828938 894530
344471 722858
174699 767302
517602 601256
728869 567143
377301 167580
773444 868087
655774 323827
363821 868019
787785 409356
28370 450369
651641 806338
76261 77018
250488 210301
753644 907464
921142 412080
243845 530617
331054 652470
678137 439686
368983 690493
223949 33423
455486 594977
643289 777688
244353 285553
127623 454122
629976 412218
771843 329112
895590 925576
644283 55687
854279 734181
834301 363316
712706 467036
249092 853998
583683 185404
377180 969106
646812 206701
21540 979844
542386 711134
696314 582265
378588 886929
143231 344055
205949 28099
615900 57299
371185 305339
155933 42680
735736 534610
872855 923907
259356 512471
801356 550612
417216 368942
99419 948551
334560 561866
841054 367148
588181 321989
28596 288605
601618 958126
219414 743335
474630 875994
74375 56433
716630 99026
956645 636922
633746 462017
55364 953044
381959 933172
379771 672534
894570 408078
854737 722421
814263 436321
126389 684577
130250 976567
830673 418237
587969 639345
240340 682217
570463 924928
565212 872321
776957 248842
96998 515274
453051 625651
342991 320776
917628 585251
350771 936994
710798 466404
515290 876442
62408 813876
496718 863113
537803 242809
527836 243559
761232 860486
877752 375679
366420 855765
323407 174514
772668 394105
773240 296241
628387 281389
87504 156992
601648 433738
479733 875007
135478 688609
677361 907615
39746 141778
484862 37784
241816 663790
713391 143819
583059 203603
107544 511811
578857 478334
533427 554481
612532 57832
970053 218686
767915 948052
233960 754623
649921 909562
519700 413552
596509 668689
762393 396180
631460 692184
390529 231176
603807 270340
636102 546431
900538 662818
265330 525573
533551 721444
755364 854195
820673 646853
399153 190828
700801 974175
449967 598396
384505 286219
122705 794941
476831 876023
746738 693574
241526 773972
736388 249574
253828 570446
260085 750951
905042 735645
784155 546031
559452 897182
629288 796995
606250 267527
775521 247553
717688 782189
365168 865460
32613 870420
239878 761638
346266 163979
244369 423433
616548 797105
517199 588967
959827 698535
293933 183831
781878 838701
862597 686802
762675 274321
53250 436293
490810 57267
188449 827388
21506 124961
207091 685014
912086 465552
499740 701938
275381 564322
255911 442290
126803 575422
146810 780967
258949 212362
629985 792116
341245 262348
501720 684874
544015 624965
242465 438900
351823 288761
744286 785965
730528 451798
741906 386050
539877 760415
890618 707670
34751 678246
894591 107120
771210 339863
330508 331940
260711 803282
843883 734855
86164 545694
166728 130399
592210 679361
318882 173346
517595 420393
857679 732300
448618 192130
263145 544254
199380 41419
43464 811427
518032 891504
108253 895608
613462 699112
211424 455480
865554 876115
208606 759550
376563 578920
647572 74698
742786 671766
625939 408278
573899 743132
798059 64964
951587 677390
781732 714160
838364 952379
242488 713343
788906 91722
270183 485941
269051 443095
116769 882835
524976 401340
811262 647961
236578 683278
243311 205066
593458 936522
776672 561756
88732 471802
167824 809396
518024 912394
536638 560821
346477 857821
322532 503848
787619 417727
735395 901201
639745 138106
638445 118799
694570 348210
910319 776429
336526 254190
121821 135635
524014 529252
26090 487105
160213 624337
557187 273289
176013 523495
594953 666720
345184 290880
383787 212253
225533 33457
912413 746218
251721 853411
891734 735382
50716 816775
82167 270550
877170 729142
237585 824686
649800 602731
253013 809694
477849 888750
255658 428600
646701 76201
804656 556998
868832 299457
96007 816609
155814 658397
608052 309372
744133 132777
438559 304201
304602 553422
674833 891877
75396 96882
63033 386216
275064 820262
203909 637961
460249 543000
71618 835225
352010 296608
359520 613422
731782 399218
330205 558574
963424 708034
329181 311692
246402 757003
568435 897694
194987 725773
890538 939552
690582 380369
873292 924930
44605 927808
246373 795207
571202 227049
458547 911389
36883 533506
243674 581463
239497 23330
54375 810345
582333 268311
512115 731984
475941 889198
322286 928302
30264 179796
758153 856647
649473 557278
314998 470083
604791 448277
433258 923596
457941 575329
893944 730212
68303 58975
242526 114762
685682 334598
90610 347450
849261 481759
56658 364554
672400 869980
237751 233637
531102 747625
258539 799231
157731 959177
176660 439378
189378 696788
879545 695893
431986 372823
361046 929358
161633 743614
167041 401587
884533 362593
325949 184713
465132 508257
830583 687459
70550 925688
613302 398942
879105 362951
667819 536671
29351 867916
931708 452355
729576 121033
289486 582140
699659 635133
26837 852994
638743 318417
441711 546485
101417 211410
830560 422020
643829 848685
20996 863369
34912 830210
920685 860018
400578 235204
472577 765773
484637 275368
344929 855948
624034 731236
486119 99398
729128 764193
519575 513584
604399 582815
76530 544200
404000 230821
35927 441044
338774 556987
979807 675251
573786 287911
68349 838845
970296 653268
239404 895134
218071 214876
616551 256421
595019 948220
787364 391725
924573 704967
579758 880783
450907 540452
215940 721090
343006 511175
69707 45125
709813 108062
82849 918780
510411 593436
77559 864245
901954 628088
145282 392458
379615 143787
556982 742041
405263 368857
325144 465220
115682 89881
64123 55919
313333 595590
30417 800872
75139 301667
677773 333676
351340 218839
690078 906486
650792 813629
741707 752613
206327 100777
944681 562004
597460 354943
689213 369770
147047 965186
676166 899384
485762 455562
743252 874193
663936 972544
245059 587395
767200 949138
270793 35128
750530 826247
706608 465205
133708 593855
874486 820913
429230 226595
593448 884383
280071 789102
89392 857566
861353 686386
629897 546214
840010 380985
282089 800845
878702 854616
597902 452370
788842 300805
730201 530122
867387 312107
628971 753204
230247 22273
372990 107837
242554 499147
852822 722390
205372 761913
370705 303573
80621 866898
253390 513401
568741 740442
145018 784095
602023 352476
683262 522002
296862 800879
920378 834095
38251 872810
822465 439205
259221 845426
126507 659020
525641 447906
627024 569351
204293 743742
676047 628040
797190 770477
518540 330160
499824 862670
187497 217561
166860 874475
871300 381836
171790 733288
391128 340020
734568 452837
737637 91813
788758 744484
293226 583879
787445 735596
350856 861431
323861 320128
86291 23710
264377 576084
66509 309492
682716 454843
75919 846274
916165 736113
888650 332000
409375 614931
264316 836166
207655 810707
769871 305970
894922 924941
46208 113507
26585 833892
731229 827904
700767 752339
487263 576029
47108 871098
297858 478056
273030 795895
830945 624384
85704 848728
251501 673299
683150 235278
846166 656204
493498 281769
379656 554979
363729 125443
916060 429849
524874 234991
443674 31648
601122 287335
71424 128464
857255 732765
972250 610225
245415 760179
743186 662304
110125 930387
811306 823704
90759 871067
333934 161710
330963 257425
942083 370383
972003 442038
895771 411657
294577 570714
191485 72219
209586 714296
791525 749921
400621 606229
216112 696820
340585 333673
118174 796463
379193 698331
43180 880228
47569 959885
614582 679114
907839 685315
82487 161258
830619 892781
71815 542958
79973 866485
451429 52325
737826 777857
38513 810585
566333 250598
832290 354375
405450 234650
692618 904510
455229 918850
162948 701780
683365 385681
886495 96249
458294 593765
797169 974101
755777 280358
786087 764032
287544 235590
498015 865845
148077 692128
531363 927587
186998 404342
348765 281127
924050 863069
691205 508191
608066 476241
209290 807304
209458 834242
503762 684614
27520 805970
677098 904717
595243 809566
278276 751296
380095 888819
719353 323709
138155 717008
264906 44591
37572 240168
614464 408400
848495 959044
826330 273589
731202 701290
472403 564571
829427 91401
90062 971768
744122 979060
262263 515954
69364 307055
830503 893568
566389 206810
944773 716041
221276 592618
95294 825619
161115 622775
63337 961410
24842 863534
594788 301252
118918 93223
459680 662071
586763 822488
819634 695974
662560 586599
692679 621363
59021 48214
796539 751671
608305 478150
963494 710920
274732 740181
297836 651940
618157 285339
609093 608015
752624 640914
609702 260282
298261 696748
227395 600999
342458 628066
873729 844490
526354 731814
540514 360593
96196 131447
233355 282960
155720 670515
448864 601838
560657 429325
834840 745663
458829 754947
199771 576155
229423 685747
905716 430659
851824 736063
72948 64463
625521 718665
202089 626192
329217 324944
839803 377020
215360 182224
522012 514640
126407 596618
291462 125850
128477 790728
737980 373461
26246 232285
383265 597824
145987 692016
703598 972540
657135 816316
49978 879893
805664 564202
227066 44418
560006 442324
279722 57376
947653 549374
857252 359363
846348 480529
590374 882314
232961 828010
204493 130882
809822 436318
921001 731867
764664 399873
281938 578316
550052 415615
735340 455436
476935 393160
335230 594118
526935 739736
38434 133838
243446 616868
123401 408145
836442 388003
853253 321751
387795 563601
911962 598985
85664 855262
50238 485935
644673 669569
290284 781200
785389 922333
126215 693918
37252 944333
129167 147195
879040 86009
880525 909077
36198 308601
62602 465255
544370 749970
129814 861286
976776 179203
372108 284921
506046 595322
644634 339403
72207 842652
38345 864184
104729 881774
187721 757176
956363 307536
608568 355944
607431 535560
40019 195102
186772 530271
795924 970080
218666 698285
758503 396315
738931 779942
346615 627155
132276 854734
674630 773043
729209 447054
527281 586863
784523 24972
196757 840228
664195 421097
410492 455445
273236 732402
179162 556507
306242 635259
879792 908561
734012 491738
683734 973451
462502 633029
453928 761254
152686 905121
806362 310442
389701 299582
471453 355073
442439 389560
723329 791000
920420 859107
615518 197588
670129 622694
304090 406477
432444 870447
425040 571280
371052 223983
545424 184938
164847 955252
92874 818925
125340 868439
965712 699392
342667 178333
631817 855515
472408 658719
270294 915468
645349 270303
911337 681184
631008 557605
404532 472430
430311 496390
261218 829522
74515 33569
239196 757510
121114 375045
633470 607250
233638 283195
761796 529767
523089 290526
379503 601728
402037 462527
866078 874710
276257 813575
33164 569448
222198 749287
51333 531994
645150 730314
656926 943348
250898 811747
43369 807209
262782 802139
672054 870509
792158 955903
484890 876590
592817 620325
955086 702952
925927 710600
787294 404690
512885 717093
265910 233694
459007 633608
327511 757544
357278 745160
270696 245905
566286 873084
726482 259965
835254 701918
573672 952145
20174 480554
693771 321424
145140 782481
119766 385062
27221 28222
355153 247367
117922 923346
343413 626497
808688 569658
898851 706091
766564 560144
52767 242752
287524 443941
368950 221995
717390 413358
879868 855277
725479 521699
143803 831426
196615 840425
607253 582749
516153 933221
206955 71368
82048 353125
368377 308689
737415 642267
832657 355808
258334 806491
494551 595657
779555 299096
183706 884910
608063 512300
393198 604700
59744 488924
472380 73011
150203 795477
90290 934331
610840 496224
672408 948737
403279 563256
965374 326716
670804 524497
726789 598899
639312 768938
453371 362179
154176 773976
527507 724298
267666 558732
671882 476708
182440 219257
457685 368687
251563 248112
353586 618267
575979 798972
21792 545193
801361 796179
643748 921002
931952 226307
884385 935470
794170 299735
919270 719648
27645 817573
225001 201255
187604 777912
733295 410691
380933 573727
64827 236629
25911 182092
372091 190517
572586 898643
974135 610755
829890 896837
689807 595944
91174 191141
875876 901850
892287 631497
679655 972270
575066 266826
826775 613666
325449 322938
884493 94736
653231 953110
404623 650783
882897 838068
27335 868513
589634 472269
269580 848507
253041 761852
815815 279623
364725 260074
454302 96633
700012 189552
445089 189891
179864 696048
397876 669413
572050 503843
583955 541965
811852 306401
37912 904841
215906 394007
31112 228670
107525 128986
886346 387584
89007 131866
113473 591197
704348 814170
101211 164871
367436 401431
504775 336586
48722 531993
736191 912756
350322 906361
943211 349790
476674 858822
674282 881071
599659 467532
816669 635496
589138 318412
164404 734063
348609 297118
828436 81049
167234 866305
905746 605102
483615 402234
549829 694633
199246 840747
514059 640014
521926 592709
519509 891524
731584 580424
705960 373352
388609 239235
130449 153756
228549 40845
22634 860760
293701 802756
733948 265537
458366 572027
706437 161701
823880 903047
447578 255199
342808 862559
257646 233229
94066 939766
699204 334194
728688 970965
197626 764316
188189 729362
257208 809896
513884 883681
695394 245636
525423 373209
275669 658653
73382 961135
809282 611947
187718 402829
426505 302120
765148 362380
601277 43199
220776 834742
531402 783032
123067 687966
410240 223728
352093 297333
798744 303228
570418 225219
255023 498166
266531 423652
966580 324248
460476 548794
263903 433546
704506 898853
246109 823385
585863 825746
888930 919364
903872 606668
915012 595277
477246 509099
840867 374042
613274 606204
660422 223506
722515 788585
404743 514043
231096 76478
250345 276346
512657 732290
670350 534448
893475 665663
349730 311820
942067 682129
403955 237777
721070 391817
941843 907313
184379 594230
625945 568909
373593 506432
191650 731534
210037 459236
225560 78711
399618 238070
809918 541544
230783 298655
351951 255206
357146 264987
735716 855314
176815 727970
267064 435135
372639 625224
465406 590552
975549 317893
53291 145496
315503 219217
590268 679470
499702 840891
41505 965406
647213 262903
367979 302794
813214 390248
683126 695776
200895 554691
597078 401774
625741 371560
697004 544269
748678 830837
185112 519869
516275 657418
319578 312065
717280 449086
299098 248838
29092 910848
610483 884103
51982 198289
965850 691154
302054 276680
738704 974633
357218 373583
957735 193226
236273 648699
600989 705148
73047 62979
728884 906943
763688 394289
160229 949937
102939 566344
58521 921503
812103 911538
561737 914981
448279 26204
942155 569841
237025 728372
610547 264942
486119 895046
816324 646810
346664 181493
756136 657389
155609 202574
407089 286676
252864 212446
390379 243963
587580 944958
793867 382104
714562 375788
337297 332362
853715 328924
405196 400102
691493 397721
149274 759596
791192 547388
159164 87899
465182 303290
118939 876624
841671 85946
148589 550222
60898 918068
403621 236537
352718 731422
728022 896362
664475 844287
959969 634377
885021 843588
893694 825698
220272 208256
540675 357535
43928 856997
670612 72834
753912 644678
33253 802627
547416 412358
746745 257754
141449 959159
728250 834777
889439 832792
555617 816564
61335 390698
154507 540085
259241 418450
482369 883094
470105 584951
927770 608297
210058 97095
494259 683975
390532 558978
139302 180525
622502 381029
464013 416118
220702 691521
940515 625542
244454 589985
139295 107386
329962 648848
868414 669261
273293 88035
722199 481078
361399 611649
696886 275786
33339 881415
747495 906187
481773 759367
816763 683408
449218 536765
460706 866067
378556 295260
961299 619135
619818 911747
677037 945217
439919 499233
205163 626327
68255 853886
600622 671122
632675 759030
945023 423539
455985 352637
240946 849243
730623 678705
698171 457005
96639 201984
552660 865535
765741 38219
711942 860628
213345 660385
888368 699408
744002 712440
316061 521845
702593 511565
953110 705549
400871 237625
831241 362685
500115 916625
778477 745699
590464 296329
669846 877990
909267 596276
971360 609782
933321 409052
129091 797075
864739 877012
198005 883337
383958 755559
206342 645266
952008 294785
474573 565997
908626 448155
43250 136957
237469 854645
832910 417765
576866 743543
737508 384502
220218 396255
787672 657867
296612 806030
617433 832641
240669 715345
101836 803334
754500 568620
315585 243508
316055 265030
372558 740607
320740 561016
384029 664483
572249 934609
270436 823611
195655 50814
52511 812485
217133 624236
684365 720083
243958 694041
979719 326516
277652 55054
100103 593581
935380 137960
898769 364907
446028 36434
162315 751219
388746 296834
730516 530440
400023 929532
829261 798798
517252 668248
536888 783773
95249 284957
866924 873731
524335 536165
783301 750736
124541 595196
354500 298811
611598 841910
73849 550276
331562 215395
252007 56934
89725 875173
368587 294512
184347 884236
140421 686222
804466 786377
902792 472406
716474 446142
310094 326161
122244 834229
762150 284729
621309 748634
250473 68685
310519 602241
341016 196999
742380 82611
231735 724017
362796 294170
196138 764830
134094 757288
392560 274171
906505 737601
410562 362598
640149 132631
183350 757851
740965 910411
126919 827009
336470 359670
775138 937985
713378 818958
62597 965520
233400 719841
507892 506123
542505 184498
258209 770887
816532 821434
471800 198585
603384 801426
534437 373222
143372 807975
789047 972876
520954 215677
762234 533670
502068 227204
141684 831277
856828 722154
564847 338737
788038 904805
575771 900652
892923 838982
343190 162021
152895 658544
331318 556310
766729 593889
305683 405344
832945 401946
254765 688311
642196 603615
761814 746944
56825 532852
26884 819162
845448 400880
892929 735749
407437 231259
38176 916829
889554 674980
653078 782148
445198 606551
244492 283763
109942 812199
293313 94794
157140 87638
844066 662551
218349 607092
606237 418209
566904 607839
429086 431535
214948 836521
21986 862743
324698 710170
197112 839151
273005 793999
662966 234631
836130 385427
556605 287299
280173 687900
433841 595249
165646 746474
655361 624398
562425 427989
685523 687885
309865 571446
223654 44494
926442 702851
92483 940162
304999 551608
703748 429098
346671 594009
213111 687918
624415 355228
189363 617672
99608 843733
439468 45046
133602 125608
371995 707563
100849 908531
622735 427260
976958 664530
55329 122482
625623 735095
689540 371423
309486 223767
101581 762479
50639 500294
94627 327228
745845 644574
293866 809934
131778 575230
573636 190773
557678 450503
666360 775605
389923 242383
951444 547701
279606 465340
710401 377795
628660 559842
732228 510696
211030 736398
150706 366325
675273 949678
773197 741446
877787 366120
370690 112586
745493 670077
598757 894765
127441 962601
737128 706013
444158 382382
538990 679112
653791 61260
48916 811424
362313 126964
168452 115733
209392 653166
559266 813976
50212 848727
97412 354265
840646 618090
453282 303158
29935 415621
433842 821354
310065 164596
777732 26940
60383 242359
715883 892368
135367 790738
381222 72956
359258 922722
40946 241617
933360 408746
257226 427614
510832 933469
610366 774096
186865 739324
752904 437453
800503 495179
671968 946473
169486 472885
385335 311062
781049 615236
920674 720162
334980 640353
644883 605262
502814 107056
184714 471452
494818 711747
630684 655564
936976 891065
37341 103297
141825 546484
855009 379325
449167 917074
338552 331925
957147 348863
364664 322946
65386 290043
202483 625119
904882 712034
228912 853672
600195 586410
778415 911770
84621 824770
856800 362691
596522 420531
97879 890509
963549 700140
433677 417857
405216 286647
875982 841448
341036 351939
954221 348703
143222 121488
150498 780785
743022 893879
148088 835662
637846 778305
92788 67080
898001 695431
296473 470850
929636 412806
112094 233869
85493 876148
800023 459882
58846 952589
474037 874999
625078 916802
657110 546793
210129 133884
391169 332110
245408 466264
155829 748543
731270 560469
768818 352686
183643 81235
336773 596667
474035 201189
30320 807168
918819 844862
125513 957286
157524 702303
650807 64794
346729 294887
329097 190207
333543 259050
85078 632798
836551 739162
905174 314358
186766 545178
962024 283919
119466 963968
593294 789603
602503 428268
755995 678365
37524 240668
719819 436339
870509 687433
281708 34949
177717 84295
122614 691777
796736 798836
295998 189485
209286 741496
953397 418791
325178 175627
318824 845630
686832 632777
124073 758139
498546 916958
89766 551358
541667 713366
417645 566587
792346 956955
303093 457476
855451 634187
305311 149593
659158 221118
276698 565976
812695 936849
542313 603310
313329 254997
285626 255085
660930 541359
92333 624329
954948 160258
228837 508697
163707 209785
169271 765286
771100 328187
521529 760352
918972 853703
874872 927023
57671 841720
137360 608019
44152 136146
909876 465534
892359 666845
675889 270319
34497 877448
380017 309725
55183 337411
937324 680860
559890 500245
778088 608086
764387 399402
681197 698761
406316 285890
516612 57915
957400 720623
259940 527130
803438 308379
770831 343509
766028 399295
518411 157795
471579 766200
99952 337453
861792 888850
63115 478495
275919 104673
589878 925013
870695 732075
934555 888428
563253 977466
913903 738609
280476 740907
250728 542220
672549 674855
268752 198486
861372 640243
408336 286668
791435 640794
153100 598087
366843 922814
52167 312975
705491 105162
296083 806891
930835 435754
24934 554213
259649 208663
35910 681608
532666 780195
729315 417238
338134 534867
647493 698547
37660 799966
572380 884694
314529 541067
713344 773716
923813 420847
287413 66116
140884 540627
643220 93007
394122 31538
268915 719437
838040 492933
219858 751957
881063 329648
284831 925041
745652 819989
93741 381892
165603 956294
649178 937211
349794 310917
581600 904776
326552 637903
344254 281835
901686 609631
479507 854422
79352 628018
768505 438568
326505 173939
452067 545046
718323 821434
545627 714673
855055 483379
156828 454299
352436 618186
307168 509373
443203 201061
257559 445108
729033 419019
368145 866672
971105 660565
705741 971090
636182 331299
610805 438048
235210 487082
236664 853158
338186 590035
54634 775744
833696 666319
41505 905315
909101 677239
713362 893226
417124 586723
359269 925446
731578 323559
339669 264077
896018 389852
604059 421722
861364 889248
452100 256043
124842 379297
861551 665238
918364 847712
109643 554857
925036 706407
608230 287865
337024 635540
805148 741923
878039 854728
262098 817325
812661 433328
332397 366845
895086 837335
124663 692760
32328 532994
754061 826817
786297 745044
840457 666026
221417 750081
780096 925287
851635 734772
816873 407167
291804 286413
748234 542198
592176 173315
594709 289667
418886 492009
260496 247597
321195 270274
121742 653177
683539 578731
917986 660583
366989 737633
614067 776615
865864 711282
838224 732332
222521 749349
411468 297042
381783 233897
597693 707395
176895 160750
249258 219004
80189 829972
106724 385013
643592 785188
100093 936507
773756 700027
941940 413345
563330 871020
574048 40332
931288 720029
664718 728296
101397 881634
370912 719046
204298 38214
920472 359583
781383 464788
205006 797352
639516 679979
292522 654350
530052 674791
135445 124544
50285 89703
107137 898404
394867 547254
654944 975031
343919 288068
876437 853879
449403 595708
517909 711227
188121 64566
25943 407741
440943 37466
155472 870041
592444 621904
737690 265868
572172 226417
64721 110813
523698 406205
349385 384211
869218 888689
385161 338908
574141 226250
417532 549501
427359 614927
775015 301362
833970 275697
767492 241828
509492 668478
177245 554859
19926 964436
648276 268886
895628 389997
556578 868124
298991 412471
562800 879069
152033 692941
393760 619889
414083 51085
815153 681007
431781 660159
617507 57324
236593 423573
264986 251165
834486 375195
672911 479156
220973 748521
59627 493793
23361 458845
150534 911215
969635 680798
171597 761625
372355 293926
19989 924336
198610 123642
269461 576165
776491 487978
361678 291327
339261 548370
782909 516409
299949 153811
591670 712022
126958 799019
723067 521589
687315 905245
845128 454035
668390 699714
529679 587595
301488 189410
250329 812562
254988 669887
27389 85397
225350 674125
325823 650313
142807 833478
274491 792923
394905 193024
787488 914838
818758 745285
846045 619726
367695 644204
74744 873559
934690 721404
472917 594210
414763 250276
596609 404113
598828 279797
394746 248214
447895 543798
907016 331007
894078 737056
835613 704009
723509 286223
871249 672688
748153 778615
145771 782372
582491 598455
629494 37495
391803 619973
541967 391312
88493 832906
38702 805205
959310 677399
407178 285134
76806 299873
161962 734016
301316 523466
248066 675243
22353 229998
129344 978344
268031 662029
211466 459221
725762 402583
764897 398778
439495 373098
498068 596009
141519 803253
647619 914651
23067 883657
727085 890262
892505 732148
966110 355354
265638 424983
523567 411095
37711 679929
863759 710655
921234 623880
924629 325628
62358 966894
31378 538169
200254 630229
184357 173293
394366 763387
219355 852459
749305 658623
198057 845257
210284 837303
221375 74965
270196 559980
30320 768183
681790 346073
813309 823042
418468 207780
371496 711750
67326 557207
344947 268675
593029 665476
93274 62659
914363 670498
218921 759626
820175 401581
113293 516056
629645 679326
644251 605710
125068 414950
830085 401188
200347 799174
747402 594912
754988 710690
217739 732051
162228 117037
840075 953927
670921 402530
125045 869665
966385 208915
824189 400785
902940 391154
252650 461554
653985 537456
500188 571568
32143 809498
88855 830930
257724 222207
776521 92754
175250 731056
767387 755990
685539 683102
672596 869735
266270 844375
575121 41374
51436 199638
836540 713158
122783 247467
358578 920841
797268 452520
801601 466279
118158 930801
130580 854778
99733 872841
882173 909688
722078 440598
51854 509273
464771 105291
42234 141993
569282 726590
641246 674901
100341 132220
776756 977680
530409 190584
272144 245050
49243 883000
367021 295586
277896 812677
556773 344167
244828 452759
894065 733683
787637 903674
583770 322888
61637 475710
167859 86978
387926 321275
45154 59371
104368 776099
635264 191499
132510 794953
208323 454610
957103 197256
52500 973600
917428 312508
239445 774269
846800 738748
68783 43005
243225 620224
936780 257131
771315 398525
782330 975068
741485 847829
714799 401456
961929 199283
622898 768343
630451 692278
212774 35029
205045 232270
454793 357658
846713 736637
455005 916946
766566 919238
382640 311193
505312 112116
279228 427290
886513 915507
56223 253724
704098 759552
442744 534037
352252 903388
481207 42962
541541 707836
33064 904456
82092 823320
369180 608019
232950 213938
310991 272255
61600 452893
943153 622591
771247 396059
856752 733477
232113 400866
692598 904331
594162 469869
51654 451945
814388 105223
894063 410571
783149 894182
787641 459578
655652 249531
629283 358215
29964 964277
69797 35467
591569 533761
45369 370909
686513 90730
453698 918558
522724 890105
458104 918515
853999 674353
928278 727161
263723 563140
142635 865411
485047 384568
27375 674003
60614 441027
972020 363315
824004 647419
100781 938735
316763 277270
651369 910088
44197 264944
807587 268789
562488 458889
41524 872861
248100 525059
399526 290534
756981 616052
225823 157211
81915 629988
110725 338103
591918 176067
361644 938070
376637 169049
788905 946682
685994 344880
650939 718553
644957 602860
221344 748746
909733 330566
287641 320520
150219 929902
607427 792140
390586 268511
928289 390950
776314 549775
36037 821902
408508 288298
467234 339950
432587 566756
920135 672875
860181 638501
614831 424805
543143 745761
849532 686049
228315 860020
724803 441705
757824 276284
515908 64428
393223 204042
364635 887746
305513 201154
153073 775066
234865 596971
42678 825294
162053 694667
91347 945385
401255 531188
239351 850531
311063 611561
849741 658856
493851 366376
295554 649384
321393 264700
653978 643921
748739 602983
765115 400928
446880 22375
47978 286123
389304 276115
84473 870724
853974 352659
490118 279155
652994 321250
627247 735924
280337 787386
510349 344324
233495 564068
322277 269065
627065 741531
187864 459951
124261 128659
363658 326487
509639 233592
159631 873012
32320 222709
300625 481992
548752 255284
943455 906835
872703 728050
381717 890975
399160 537533
312509 399137
413178 611251
87463 943884
605882 427941
313674 270887
819392 366544
872956 649995
189925 829721
807587 404921
469080 44321
297779 189437
556993 705765
98783 335765
405766 505754
288773 563583
723376 970329
969537 664423
801107 422655
387111 614187
778709 380541
243694 445880
541428 355415
501691 413017
664956 967541
886021 675273
966868 695342
399688 289416
283095 657762
368022 734168
487352 189127
176641 677480
209806 717112
871939 692667
296594 798130
789953 547160
363004 201506
835910 386481
108978 608138
440564 40881
593352 409370
708090 511971
94373 285836
122534 101860
813636 533830
52380 901542
792620 721544
236785 302123
627835 751928
360370 744603
513265 887654
971357 445634
643817 84397
432097 221082
689481 840240
68417 52873
471649 594287
978220 322472
913157 674410
141768 796333
518070 669135
322198 309338
135279 152841
41796 374333
916785 412590
247831 849886
790708 750342
221017 864970
314928 245030
280858 242217
393826 285985
54610 826041
754730 860315
462824 614573
655738 913236
621543 168941
564224 897278
692612 840949
926974 727879
374814 161432
398475 541441
832602 684710
127899 691856
837953 334014
248272 847240
61096 843581
75421 861538
675563 880080
206700 689408
564827 875955
74053 31024
782737 920916
900198 918498
169746 955325
670918 869364
872821 865861
107351 231421
195777 945270
606914 424055
37296 810058
786205 939772
895061 824600
450400 368986
802014 932910
60579 467946
577157 550213
106857 104041
156730 852203
393233 249121
614681 857511
577710 879670
378828 601045
228070 486681
308741 497193
778709 152233
138702 451358
520240 240595
746248 76522
103638 891793
123086 827446
252085 813296
698149 638418
151043 830548
693468 392007
765769 399858
906176 674206
690549 593392
363088 290608
843590 649731
795301 778985
56100 816593
207632 875001
335599 194720
68370 71640
128700 582734
879299 409431
359137 178270
691075 551041
769041 308297
364276 476970
579683 672237
74402 860081
898795 405975
664843 931823
217401 49477
696152 525795
730046 402032
621573 769722
276509 919750
99001 895022
219371 865792
466210 194983
121001 883112
257333 751682
615728 396693
502979 48331
970163 376618
621662 186940
823935 403680
666395 538575
291788 542225
371687 810071
636651 773157
527079 758043
545102 794683
265852 428787
33777 131810
477890 395967
459240 343396
622609 745767
769642 370993
250962 854230
630738 685729
118413 89976
421762 525116
438782 613114
806654 310948
401803 643964
30016 799775
178649 697083
589777 922723
745275 842194
945976 694961
250950 709285
355081 658620
90756 58416
613411 882611
296077 555695
973281 615825
633013 686787
753023 730763
252499 49520
583605 826474
176041 696417
664050 580230
405385 519667
353920 220650
596381 33637
913987 596787
820196 658188
965055 629218
369488 692539
131752 855300
836135 428890
901316 708899
109617 594382
142440 536343
689360 817523
924989 868468
647095 262984
631686 757219
109553 566515
304202 637307
639328 604006
120035 371754
596469 449675
912496 825223
129230 597234
421629 786615
753994 659596
584439 477373
85130 859719
133015 568339
245540 282549
956910 162346
442923 66116
835683 383456
128523 661598
140757 395869
759313 536124
802646 428797
751836 831327
807826 307329
23476 956431
748369 832150
825915 739520
279715 736462
561475 430587
630165 333266
697203 125227
222636 729714
745602 134557
442689 194225
725724 520890
433117 614372
22315 550824
906597 604351
251012 471988
302838 487236
766373 389274
154635 901825
453319 598239
794651 464317
295790 793286
605984 673401
626521 790963
57588 407280
117066 402371
258196 833663
442927 661946
656991 916367
472590 563052
400622 240919
85179 475185
896167 926252
120338 362669
742514 467080
140582 865184
824174 690231
686292 268713
801779 433538
37601 953256
535194 225189
573977 471277
205321 878212
21091 882621
886334 632267
583653 831550
190374 733119
402141 206263
579790 427700
763571 967124
711669 584121
100171 209332
327487 651614
716072 134638
737516 535176
831928 798835
712457 723642
575269 228010
779372 388444
249794 739561
842693 279814
500435 779666
475174 692473
319308 267889
747073 782473
855124 649855
71095 368646
962342 539709
284132 48873
531326 742108
74366 808433
373375 302018
182314 450243
387492 649902
592856 838458
702463 552391
597539 953603
626376 177607
103017 362417
405305 229436
706684 897319
36311 821440
270092 850853
942252 897324
57083 510918
32250 878319
322745 545546
126201 581207
377280 909024
390230 283981
387212 603800
781933 731936
762485 630840
670609 698868
122080 795293
622530 429751
221365 675142
612324 606454
357051 196114
23600 947765
246868 481091
770912 154389
595529 468938
258965 777024
711314 471730
341033 753189
590457 258744
834989 365574
339587 527681
690250 975009
455258 917446
587150 907293
644290 920037
357934 912425
184621 220285
20764 232207
207664 817422
274939 103234
793056 382540
597448 406903
330711 651564
224350 679648
113174 344678
626878 957937
526146 543533
63366 844161
392167 603502
602717 768657
72908 138096
296214 647806
769365 93652
672028 861369
351823 229210
202192 937473
92608 974665
645570 667565
833386 735858
963573 337279
720390 267021
38034 960361
475517 937656
63938 815162
823741 689054
655028 328904
278158 111360
426267 571861
53840 934454
812277 530679
120275 635605
446002 595876
179211 733418
950614 272635
793144 530935
64982 529872
736553 799338
151244 565339
354161 949964
377947 734793
820709 669461
656102 631389
890414 829162
243665 428334
919821 140782
736760 487692
88148 862968
731538 784568
330512 369832
187705 685983
266645 764105
768590 593052
413665 487278
624969 743769
585518 919471
762049 656525
783125 545938
444230 313460
348892 304588
233564 497693
461104 593710
455968 662725
254847 50806
135147 109380
198695 47433
226988 505798
472572 375473
767949 368309
259062 274736
119414 383739
100259 632600
618171 401591
363067 659736
253692 499267
249515 504573
65407 852589
255213 62132
787820 426858
700021 872707
105047 261910
499021 698323
215636 755449
763371 248168
116827 563608
223231 749284
767096 464499
768054 574931
77683 935095
200051 764027
482406 40762
326884 328338
689055 627446
458584 368957
974806 690554
798712 739374
747411 542921
66962 115047
514090 336418
803969 426267
361080 660224
479668 508746
120291 589102
376049 496313
595589 443840
328322 261145
248527 414808
357595 189809
444444 651877
24732 121772
22030 789841
665957 816773
211346 871937
127119 867280
414177 301015
456402 50205
381471 277353
327498 453348
93986 187932
847966 706709
239224 754537
145980 752246
585549 427998
225865 832019
405738 236682
207388 740604
711665 377391
119536 936410
679961 327350
545910 384184
897061 406639
636431 279113
391683 933072
59587 248491
109055 769856
782913 773255
306781 632607
56414 889477
366840 729676
905057 395213
709453 541220
338584 633326
603532 204545
723881 809994
27710 942533
668504 965400
764610 283452
708689 917425
120588 575958
509639 566975
666948 510643
20005 858045
852064 481388
439156 543180
129743 833970
705493 164266
150339 548962
382798 445626
233559 486069
959471 348641
115068 903509
558780 616748
154798 453366
469632 377513
822824 662977
34769 872153
373683 597356
574314 552272
383067 602757
717393 835745
277552 129644
562257 431596
82608 552838
577480 369899
258996 772760
55054 840887
296846 562507
659512 327023
944141 293331
166468 777009
150178 668834
207003 928401
857717 710203
716540 436075
786070 285285
871173 918730
968758 216619
856388 99679
124083 585558
207253 693518
626297 963567
80084 162949
525801 409377
561678 302990
244385 531801
634896 636360
814981 745438
512123 508802
592707 810039
896276 332087
63926 141282
133891 972130
276976 83294
141800 799910
694007 247037
600885 257936
876869 371126
86522 626998
196300 67218
318606 266959
445702 37611
365672 133685
48314 900454
115147 905088
563724 436331
387402 299998
240618 38767
898974 338111
34324 832810
671662 816367
593918 935822
760330 857653
356515 868180
816900 368942
693254 203275
194769 696829
805145 426897
702522 463849
524648 758703
382006 668789
176386 195670
684701 697931
346546 610519
881424 832774
524447 213471
398644 509547
540554 727265
970839 698506
46840 318991
129038 862865
722741 764757
352398 292404
970247 621833
598725 410296
784642 930628
130433 853691
613873 749773
51515 900285
209658 488170
831941 615642
783779 919688
229237 280592
222723 737592
166219 176874
420203 763597
452563 94720
949536 680180
30381 908806
52977 900420
172214 105721
744528 730095
307808 473011
88764 935316
296114 794164
838658 685887
445820 164898
349961 197650
156712 545838
735108 534269
106112 902467
464530 557120
376654 138299
110857 135291
729696 485994
795923 927749
377844 454091
744450 574568
172093 954201
943020 151387
115199 794406
638739 122192
282338 76981
149886 360374
87648 148773
415579 927944
336086 270874
391077 196753
250372 274324
756105 318890
150230 934769
250713 57229
218848 884979
101890 174564
90052 537499
572564 442277
943516 700734
594047 615265
735726 704682
250408 485394
944910 710770
177650 884473
44132 813287
567654 44314
27056 664409
25201 229125
612653 677657
785241 935380
457303 613786
447885 662820
178504 33322
84730 837701
948124 722277
529476 741131
832553 690897
398444 539158
845785 274667
60868 209086
770343 372375
49939 844174
269622 555647
242307 691650
353427 659152
102868 902888
849479 660507
896490 364460
451498 773630
122584 410658
867873 728277
234220 754832
520688 300114
563615 187879
854495 381487
227183 677875
283377 319953
148314 685197
41411 378409
90888 74092
316106 558503
739678 837975
228834 278432
683183 86572
140131 959043
919223 674263
83991 350566
943347 564586
321123 274683
295048 789501
740956 673364
244791 458359
616248 604567
512661 893295
695477 907098
881004 671400
780561 91868
605146 806223
897389 823361
170876 145849
35288 980653
232021 561659
767932 403405
821785 401023
470342 174811
930211 671155
504448 504038
52203 173297
834586 654229
690506 373923
96863 826670
238786 428044
694024 345604
28231 293482
916443 704807
113478 802307
967910 470852
801007 967129
805037 309594
740171 536374
219712 688080
493238 934025
247076 641084
792153 737876
809375 664634
819875 328763
244091 498323
319099 638624
72481 76996
184515 745125
375406 931357
752735 906701
665077 924222
607837 750140
190203 620117
552680 710416
547111 623914
484052 372429
861734 722470
162437 758794
384232 276871
240108 690326
802436 785228
442900 371868
602799 704114
910514 597470
524877 315812
35170 239121
45937 866637
325479 463174
336476 637341
898199 628646
315492 629701
775236 937287
809982 525300
813199 270841
559048 871388
325793 273130
252576 509884
703137 303117
640544 484926
454667 915294
821360 279771
783479 896638
854548 355639
140241 799815
430868 614616
224518 726669
575618 36924
119011 837655
377443 197789
522630 523810
732435 857444
117041 645501
619997 261640
288543 770367
728965 403512
201585 33788
692235 497392
44175 869248
90302 873914
882267 933621
290817 478804
874894 651172
414722 758430
183720 223296
765123 400346
311245 262931
327239 245505
689329 369184
306756 829852
792942 654337
761355 49158
853071 709357
26908 901475
723035 726106
55736 889060
349213 310403
977232 696675
356381 801181
31193 800798
26909 119962
207998 697723
243463 846324
521670 216818
823843 730828
550541 622848
870876 908999
726211 266301
623043 787682
758381 829927
101624 584318
785558 656349
27163 826393
203583 481513
651192 813352
447974 24215
919970 712094
833373 679653
642300 965581
748744 309381
588016 427132
605716 384312
138349 788413
77739 843801
51228 589384
796973 69393
736225 836280
691494 241697
922368 450942
406402 389911
267256 422514
818494 395137
141603 865083
246466 506210
197457 216586
348732 289313
730868 452407
504551 724803
764598 745521
445645 605408
433280 550627
642319 217259
248022 819354
788563 737057
585213 29738
70220 772784
204335 680990
692277 816541
378198 600709
687037 381598
305571 598759
131044 864357
222845 171654
772617 303339
124971 100035
590180 930422
806848 230013
461332 751017
741728 683237
864467 731255
559924 44789
81986 769676
611556 883722
337294 263006
43498 811200
339970 594983
342796 265379
149629 89222
163176 634392
286376 279005
588487 305802
668254 870695
286806 66118
157681 170036
41666 171157
301828 456598
316126 392210
159993 760471
865377 890135
611978 676807
802111 475707
668632 469449
387721 832897
146202 833046
559134 564723
423873 615060
340019 352893
273654 196425
250743 26503
203937 879611
61691 899240
796367 681446
818260 593188
650846 666900
197025 571810
630960 591292
457758 939797
944208 424843
505398 708013
64403 850622
189057 31648
355616 629633
584142 924351
824431 740523
585623 948171
462722 418043
393776 201649
505214 413468
652343 221155
975835 658014
742380 461871
929881 734074
148918 900587
66071 379755
892551 934380
312905 249518
963794 329157
449315 631101
338408 658992
520418 889088
490242 684102
438927 547540
584947 972291
128895 141654
675994 971701
343640 318454
392424 351699
816540 799256
454170 502886
72101 73918
695307 301958
624342 407325
293582 128946
36370 830469
525243 913572
337870 278061
616490 393557
77835 770695
295802 792262
793359 282416
521956 219849
627126 176213
54698 831277
931160 457015
927204 392681
178717 164096
787835 416395
494130 842505
735043 836051
726061 852507
624725 57802
570749 556215
593362 348734
523944 587207
131635 43935
151255 688266
821305 734253
24241 824409
314784 526066
666257 544664
166285 126711
215868 34657
671615 536013
475046 580783
929944 612011
399529 644403
129793 859695
197633 59819
327540 619321
280881 563118
595385 421949
948185 270874
921992 355286
351016 830480
797919 420674
28266 958607
795452 443200
162878 74606
729277 422724
572430 920242
731538 399804
604254 420834
508249 568637
367312 593643
752778 863573
335941 333692
770831 390316
724450 808884
365481 729626
494241 710875
392524 555591
99675 882310
559615 616175
780650 912732
885048 716697
306921 235722
223873 722090
233774 218333
868727 710919
35679 768883
245297 755990
768914 347156
54174 200000
497335 475298
891605 700513
611565 772264
632272 732351
42267 685412
151552 842829
75803 832581
261618 548904
753024 142399
619453 255650
742444 485736
519713 887222
651249 776427
27968 867245
635065 595861
674754 341728
805093 244137
250090 482853
562117 897125
826699 739762
971597 616425
767347 398697
622345 29446
273941 659486
881621 849097
963670 708979
302267 646696
738811 535496
914140 694740
837338 244903
921211 880441
238362 639694
198488 861712
561262 340986
31399 959259
550964 940870
604695 481174
339396 153620
219082 751885
585579 283952
222715 863861
796365 465619
559759 977264
77959 921700
748143 777125
778088 746181
218091 732922
614202 401458
31151 239406
54035 933198
633460 728362
972910 305251
90416 529232
727478 515408
847800 463637
195744 569432
85889 852302
434656 219221
630546 799344
826984 895551
604095 29023
634627 761236
931325 714124
457805 357322
880116 728458
793513 417361
319157 218676
562190 872882
163960 671902
874138 926326
572891 878879
147544 751989
842341 394624
687296 226527
934222 412690
756517 146133
195468 680304
661469 774734
250662 48857
669147 346736
217070 694382
351580 228534
326675 613615
763613 154123
757427 911441
107117 977705
468511 586458
755536 617828
833686 404108
287054 764596
361706 332870
762720 862703
33299 350274
99744 627773
977542 339688
902315 406266
48078 39797
519558 562616
235405 127891
932192 324747
900271 791228
735151 800469
591478 349325
742698 909151
284532 172825
806519 428237
491610 701607
133297 573474
480783 372084
345761 270678
129317 835092
917157 455197
754425 61957
53741 138518
279744 190769
473753 738206
247305 533838
606042 928580
722950 924251
518749 728600
261361 816408
758356 719620
769462 389520
543576 358438
473443 332372
770443 847074
319768 640210
538590 574669
191462 831653
88787 528122
835757 706217
709028 253621
621669 472857
297560 814628
882623 728161
296624 587056
34438 270427
953855 704063
528220 183315
626281 328593
174723 733339
522199 222503
117743 929425
801563 131706
86788 376946
174152 447735
313918 326202
759825 372675
366142 867622
310179 570216
49033 525139
190946 683858
302788 468969
546570 614043
366558 944362
264156 818502
776090 563803
397914 542320
630406 780278
587895 292191
763974 562310
834625 373120
87284 845254
93279 899610
87762 516775
697214 974966
37219 178196
403700 608779
358645 854694
451487 890379
111659 603737
73649 927848
236026 44072
347943 281271
851943 290195
113470 882377
668857 959798
799441 542306
778191 748378
212220 851693
507150 911059
309654 642402
35576 811485
809178 269412
34663 900035
264822 799849
787479 539169
430237 802551
120619 564280
355957 549551
757136 410429
243687 470502
346038 308253
728673 826651
477148 332650
127536 943198
933931 433473
572122 226374
963012 706105
309843 221826
27464 29741
104693 842275
345441 653306
441202 372333
63514 225010
967132 378658
372034 306499
492884 709080
121385 963694
642824 938192
700363 175163
305293 800862
244260 46791
633851 572314
218071 836126
436064 53652
955897 190994
778084 91824
872168 730669
325306 611311
862359 730581
209677 830790
685658 560911
973636 226285
375544 228991
615549 331497
639003 692130
227566 398208
950773 159457
664649 608323
947205 708568
866811 310173
658095 929895
588814 847673
612566 816025
828233 627897
68050 980154
954429 731041
928550 412148
559035 703363
835365 421952
396776 544365
970652 684534
205938 861389
558581 444005
408656 439831
571988 225951
255395 834884
70236 370762
847174 283979
244750 461585
885359 382136
72207 873458
154183 848069
156030 594384
701852 723322
578546 671060
47588 881551
859324 681395
332714 461226
550860 948699
275149 814343
742892 489433
290602 446108
756307 654712
405593 42130
534444 555864
381091 145487
42816 814847
256751 456862
781179 781600
238055 568558
276830 659562
167212 475813
848907 82089
806224 661565
142146 797031
433573 939131
50913 199367
257093 815854
702316 451032
210681 392651
235734 519024
451440 918702
566691 897133
605347 350247
86854 591412
762782 535941
312844 553289
868333 645974
646312 810338
791792 830814
247457 405636
484036 882082
54520 443473
826408 744081
934178 221673
655741 606982
596860 451057
446054 920740
218046 694564
696452 515945
206396 930851
358469 234795
578551 268383
627057 282817
519837 870351
951840 356276
973585 656311
400272 589454
722135 485530
214953 64811
760592 855160
267011 444256
337625 200374
70514 66804
724901 490464
785384 743336
182044 823369
628973 469380
454736 596493
260094 51791
139074 807828
908987 129199
141618 801184
546943 438871
628728 740471
662261 776335
468663 105352
390050 22979
972740 682515
808014 429755
874800 842957
313491 256107
688716 597772
232551 685476
530433 936767
117926 566989
348141 655159
484923 39580
695873 607022
740335 473975
883392 330214
457821 303341
302145 228696
879989 837872
692824 620081
784062 897463
745549 745415
965916 673094
648507 601083
979738 659737
295056 578294
235095 726811
845257 458154
142902 948605
454283 921429
560128 917853
484716 386206
208999 845394
33942 332220
191965 114682
92401 70117
260685 253442
823878 398909
282439 814679
164345 754108
323529 381350
269810 681757
161241 543022
309484 273171
20714 859025
372091 713840
52363 848802
731364 531191
654113 830383
785613 779292
929972 437697
683727 349874
739904 455317
292999 869186
302118 520918
813727 397664
822436 838297
766724 909897
874907 632124
469922 561931
146606 191167
401741 233865
180403 635973
918479 381321
300280 643825
429463 310950
24020 832691
386919 305606
889630 631478
258090 52467
952090 738154
239644 662869
307334 539740
788065 710172
841401 734300
532394 247401
83479 921412
808124 746356
884623 834732
729083 451253
722331 513337
480781 389173
172781 698024
541141 598775
430810 161254
52049 199819
102183 890732
748713 773675
43049 963711
767600 559377
106603 892719
182101 771750
392013 349663
252343 49242
521538 413802
642456 351251
313129 171104
316647 616245
779098 656214
769851 307155
846031 628263
314294 220356
768584 472052
21524 470679
721441 323462
554141 346194
761099 594341
936952 618960
310551 174988
216276 750128
155402 530637
633821 753733
814493 912104
601867 204915
363226 730876
333090 214950
288891 444929
380203 200306
384880 237331
481696 388084
541391 377130
908679 602632
653104 260082
174917 772546
878737 930929
53775 474124
165087 877949
791728 532315
328734 188771
28257 289811
875587 899540
98549 904352
711495 567324
41578 962762
47665 865787
899122 623402
382083 422317
832261 742614
825563 441069
89458 849114
435245 55056
351545 865833
23129 939167
614249 304791
695647 134275
816609 468674
181676 695842
883626 717914
182270 542961
62987 529609
253722 266923
258624 443795
783179 835358
563460 639670
220399 622384
289028 564096
694351 580545
160732 802127
419118 320557
54063 853924
651327 703046
858410 636632
835658 405626
751646 849507
436092 779164
721955 479948
905977 418872
682497 437649
32296 95625
309320 574473
738145 577767
928760 678831
818339 507290
935520 672244
905626 688397
700797 452772
649132 700288
206154 682770
35632 678444
114543 792874
274976 99114
759171 372109
435940 659513
206957 813295
479610 183662
572188 228127
267292 814973
226923 478212
68879 913033
449400 616079
519637 895821
875034 708796
586295 427351
731281 241887
698675 637269
341398 276897
439158 255664
40017 185732
790040 831717
353543 873114
195178 765092
277594 749649
303814 285486
761543 534136
142826 54255
362227 592461
685312 575517
285444 63219
218101 751250
236866 402228
699716 494625
969037 599292
306570 237006
236057 122194
245259 486124
427955 798189
330738 554724
810021 670941
33138 156382
789503 24373
666690 868000
744039 474348
211217 720215
910243 463479
103017 829456
587200 427425
284644 291851
968607 377902
335135 748229
476901 443253
319754 928153
829928 362508
671894 424830
812340 432383
166564 654237
280381 58519
259572 137232
246318 207772
382779 695182
359037 593442
143835 787179
804420 788598
787905 973172
920036 858572
91198 152802
575498 472011
736253 753697
584741 203976
127721 960920
872779 634461
965137 659850
605995 310135
524161 534303
302279 187934
818297 669732
898722 672031
441953 939045
429954 659162
933913 433543
829584 894906
689373 935123
306613 251244
641547 672987
625076 839840
892886 731685
368255 263616
289540 160891
815341 323338
786565 287105
720964 473726
448317 89729
408547 233437
211082 58768
63343 527889
620486 162220
804168 39245
183980 770002
150413 692339
838310 281117
745843 843175
656117 843079
976855 611251
106156 809765
872479 320181
495866 595535
729805 860758
463537 593289
846251 404013
581308 920388
241582 407201
596022 448505
613706 410732
171496 549687
265677 798796
63936 484050
868394 892575
635913 763982
648800 56309
647138 56615
41104 959263
129026 862729
921678 142557
578105 920715
379631 820103
790209 297330
362069 928820
225097 566796
628417 172572
147658 889041
325142 602165
646266 57110
442050 163853
56456 306078
231137 735221
868608 313552
575585 370366
610622 295388
974985 520507
201636 201458
295334 281646
833811 615615
778091 380058
327050 712234
785819 633078
740778 455141
922536 698617
360872 291867
223911 160034
194427 630442
271595 683596
787560 751846
368998 870702
95573 515246
875778 906224
333523 304112
826508 343634
501923 368560
247214 198576
678272 344414
859805 628935
904070 669671
489022 576188
638423 600563
355073 872937
505374 920189
652044 954784
811498 458002
73181 948251
669828 936070
71827 167958
670713 867287
439038 77901
120464 243093
45200 137571
193492 884295
104165 569254
404706 656054
787827 147189
620246 387134
291037 186142
555942 869356
689082 412082
386346 190835
370796 266691
860549 676853
245164 73031
384745 152593
280311 426017
446250 286500
75402 974092
141524 952757
122064 36800
967771 688810
92458 468294
707902 330225
99377 887557
502580 490441
408826 617915
244148 665564
86936 880350
494045 374626
343886 266512
261434 452378
809069 313671
915712 826613
475641 574933
810505 526024
687187 238739
655212 778940
645814 260790
916782 827079
771095 626744
662534 419580
86292 84356
598738 389323
212277 137421
585382 719105
319425 529883
905500 674261
22953 345042
283209 474507
299752 480291
689222 842312
197776 64895
870216 917179
53504 514383
903949 691689
702701 973280
87927 838955
232013 828899
50423 857526
258516 561156
37356 763611
448427 334627
460801 506185
357243 626387
656231 538870
625741 355250
748352 538260
340277 275642
277726 803166
593627 29226
433751 257755
232116 512758
128930 692629
78507 33505
184034 731910
741719 536813
780165 524358
651671 326164
699433 454515
924641 737214
647214 735586
345904 885251
490066 317781
414343 809652
276860 443024
484581 892176
581484 722865
890948 674875
618822 205558
949508 726038
796933 302849
136509 174735
21452 855828
370834 720921
940523 293144
39009 805282
123043 801501
331852 331870
467467 587217
803701 126997
491313 494003
214584 693040
233485 282363
947355 423116
122038 880455
294799 265975
555132 919550
155541 758930
765786 954186
422834 788237
311734 641770
494104 860398
365156 500556
613587 930575
169481 112768
172755 776264
256236 267880
636896 663079
106839 812541
951645 420322
53866 592907
954758 546007
346294 298793
948030 631640
775715 702438
924453 676795
352822 896768
353022 593108
704404 251205
327801 620862
598272 682080
873908 488143
938010 564380
742651 486531
305066 550038
701733 304953
234700 479250
779391 290086
918664 738181
223689 688709
948604 610665
787563 780587
500107 90436
621803 307254
680376 449951
661608 932786
245160 456628
427434 658904
360193 179109
687500 630968
203607 797853
785437 302098
314105 396901
725480 508201
239376 251381
225360 464593
291157 280354
592417 348923
45589 177434
723710 489258
397219 639164
972237 528073
140858 831200
807540 519724
571082 263751
903614 612921
322806 312886
284066 753424
437829 50566
837293 88284
168978 696720
368651 681435
741507 477611
101268 179321
570694 887024
822396 405199
367782 859179
733899 802498
620664 792648
35550 135857
46501 898784
665892 603134
836987 685713
940163 628278
565774 976025
831069 681684
290570 559637
399036 35000
726909 488017
770086 343820
232246 857058
29668 825261
31891 835745
86339 555657
756827 907705
786104 255846
760530 50977
698734 910075
251666 59377
332716 605750
799339 488619
529480 461300
822931 693407
540695 374023
90308 61382
361744 305589
824392 319843
319493 769204
722854 497118
915645 672112
322572 318373
382165 963387
21385 872329
805395 799971
101613 877921
528281 927133
251015 54311
22057 975894
479467 209650
190375 753508
954855 620348
263788 520638
435459 161913
602280 166146
84545 870705
760032 451397
594672 940740
248713 751217
288741 70846
390589 233325
94079 125977
66531 528401
204387 577632
280510 864455
737971 127655
770381 396619
178339 202293
242477 622956
243146 638869
123504 969157
765908 352946
581663 312188
861535 887237
827437 92486
802168 788499
407458 892161
557351 251000
914289 673518
290792 543012
150125 894226
448339 902843
211980 43694
556351 743791
920297 827761
362441 256914
648656 559325
641543 786643
358884 486353
724589 512069
687094 938146
824173 745302
619641 770286
339136 548373
624664 375415
798424 540102
915557 376003
755525 560397
382441 894896
58241 882892
333180 164488
648507 958385
878699 711675
278076 921646
754909 839867
106802 612081
690717 149015
933025 672271
820694 687286
710957 894561
934930 702697
758595 567370
87758 838844
736913 901477
374317 331662
69642 810112
132081 805881
284368 807594
684070 773685
233639 481240
776857 444811
891494 936662
694053 581845
248183 792886
544649 68309
569311 498899
650567 812169
109756 830655
847398 402268
602956 582576
789627 707812
328044 609465
750772 829088
48764 828026
370142 278320
119021 250317
619164 25410
911344 673293
374973 98315
24962 239040
616338 424496
345981 547393
645640 263018
601034 200669
736606 454758
934723 217771
321017 218522
73449 929470
210412 457907
788037 736467
77745 139859
913139 726109
391008 624908
463747 940242
837663 276938
703751 870013
257704 707745
310167 249321
187584 951250
569988 212765
148713 960055
115668 589860
358357 138348
223246 862955
932185 416116
66575 816018
357206 390314
631471 592948
333189 249629
33207 959580
529148 723477
700251 371642
879770 931302
735158 639093
345688 593476
456072 537797
673906 77089
645409 563369
115980 561951
347670 292547
42833 869566
103590 802000
503732 569889
524323 591384
190077 769083
676573 945432
29511 869664
618144 911503
121017 127651
349097 211667
579881 651129
939032 411932
140967 463441
594661 947678
184301 690673
957873 543503
774385 939984
612700 398291
106206 900707
787715 656492
63781 227763
504521 910906
478825 689359
89816 862879
469318 658824
435860 408031
795878 419406
566426 804895
712013 516051
923217 719756
96737 820774
697519 656725
560819 810705
759786 978387
884880 728017
830077 893514
551183 290228
455609 919111
298937 323128
121627 367515
591541 288426
54137 199412
679328 496482
216461 214773
669958 517886
610497 963472
634004 362808
499669 485682
347795 165122
103320 915829
320513 313555
369864 308077
638835 454901
72002 948288
943645 413304
593255 942099
555864 378108
955282 415102
868800 732180
364946 743535
668423 254210
58499 402723
841057 403762
741753 456040
952023 730609
347128 931498
565377 427266
953473 611552
383651 235946
395562 635999
129631 663296
692027 569764
351645 504487
670269 544785
629473 581058
922939 689219
260850 554099
178716 430577
475945 40580
617574 902900
593421 350488
882458 629110
47834 361779
730900 561635
231980 685529
269569 189354
307216 501927
124637 844588
315819 307755
737379 523102
813327 668490
373246 972637
373844 108993
670134 519885
682421 774298
52075 147732
400214 617557
750029 274356
480534 760707
39809 869498
166445 921557
551392 566426
556986 743257
374134 879958
374796 310878
615813 785891
791716 91737
828107 274021
647057 723873
856424 355553
523748 423538
770511 748814
191109 727133
135975 718232
72453 541944
251551 430854
752108 861879
871943 893736
65783 950822
768281 318883
473033 879332
695391 294921
645876 465689
122668 868018
654064 784088
86429 847543
296137 795275
417746 591417
498983 238795
486522 912338
495958 73849
82845 827546
207845 743910
201116 475313
282392 23638
457429 594159
225584 743759
38706 915074
888001 938144
344400 289977
928537 721896
665375 931000
512884 134902
309092 208405
962518 596730
392761 293374
352616 818298
634433 633877
790112 798749
339068 264877
221009 202631
275684 744055
371033 276945
53179 348687
37573 765743
714930 835688
339154 754228
392724 204956
59973 848135
233160 131148
764114 529584
222014 397337
124006 126038
550405 298865
167349 672606
274010 713537
84066 105064
514051 718298
611706 354879
43695 853934
421960 59561
770596 533135
538035 289528
528852 249069
52475 905801
748821 626928
835134 896059
29587 273693
398456 243701
771728 373669
413854 251539
864808 710840
299656 800474
22555 865380
752354 611988
682811 693043
357865 964747
322421 605963
184593 518782
702110 913944
50550 942632
369185 285170
506665 727210
368132 652878
652685 828695
387021 565097
736176 579018
51975 856614
626827 694995
853072 964253
218685 88108
96772 594055
55015 316126
169367 700906
101809 828668
131496 828550
218329 866180
546387 268914
202050 713860
200314 627665
300317 273360
963608 659319
127580 99648
756125 261379
688050 526177
744586 906934
671635 954300
220482 715242
365952 609389
636932 789821
782857 733843
606834 701121
783231 799411
888866 699338
78741 905179
463509 591113
530004 383449
348483 281724
852771 97289
573307 227268
348365 295605
775712 746902
554321 743219
620201 252894
124863 838562
154136 902675
873494 865311
35322 869573
446519 767884
52366 901649
258814 426380
894077 916880
52540 509604
551398 280955
961791 306784
916333 586603
723969 504058
946134 906182
751757 318799
378977 936106
193662 635830
303628 290946
815921 912859
580548 40057
526625 382332
23142 803073
433668 57924
262736 832589
897224 310930
732828 835022
112082 768414
803096 655745
435472 310595
630241 738754
582499 427849
97226 938926
774990 840057
593972 594716
610941 698731
591788 360473
654414 636577
817917 685234
825327 437907
229018 287618
800199 481020
466212 873264
786972 24645
361710 256018
686710 224216
283489 46323
448457 373730
824714 942246
28996 835611
339245 248410
383395 714228
304614 147309
495617 713936
559227 61693
670409 873782
772657 480805
241185 527631
161075 607888
24480 860988
280723 424419
343677 595866
781886 548885
750331 420010
680938 719897
716245 327311
221509 596173
816970 271936
761957 759606
774912 315667
457257 275954
579704 903337
794793 966056
949393 349232
777530 740537
274145 562476
337678 599636
621856 783584
359581 630064
597655 307068
362228 193290
811828 372048
636765 574573
858576 929151
717030 617922
158368 118056
670957 956240
579272 255650
284827 302190
757147 850777
320703 171698
367009 731302
397300 239249
773226 411197
585960 196014
100192 547134
115136 826262
88654 635859
39377 51867
439326 533234
620467 611346
740734 251960
355957 187527
780795 881390
689187 338161
931720 679060
747359 527592
617190 400884
59699 244133
186960 641896
330228 326354
761835 969956
165766 541399
357294 937818
114886 705921
784964 933956
668161 329554
207555 586191
815104 822351
919252 668647
714961 618762
729393 788938
617313 590004
828432 362103
812815 371861
809630 388313
238686 37651
390407 285520
643596 260763
22246 881066
853720 384037
545431 408243
840198 740546
450068 370484
180917 81117
264909 427049
942263 559515
153330 960831
89471 150956
655029 815456
188645 680455
198410 716195
638342 691233
726888 920062
61111 133321
367916 732691
650761 646107
384253 300147
120683 835931
262329 274372
128526 844396
532880 692814
720862 115120
559042 635975
58896 869171
674592 722770
896402 918068
140063 535332
792910 505735
780272 26322
877912 857337
212422 56921
129992 855073
895039 930436
41625 809194
367501 807288
239552 561307
804446 420680
770070 326306
389853 259543
342137 264382
459581 355778
322829 513070
545958 476566
706692 299665
527176 755285
80719 91518
317879 871598
149809 751115
674533 262411
911765 673047
655586 256659
242741 782578
876488 671353
122198 654072
847713 288964
961483 334145
278763 432341
842655 482360
440242 41835
294820 583509
373428 192145
669560 331992
96934 868873
305775 465438
111085 885155
695817 318541
792694 971663
526941 180235
46741 852025
960586 415440
294040 190331
746266 388317
287055 657856
758604 773099
103734 621482
884514 606116
961596 662657
410029 928086
822167 637293
256112 60643
747115 885689
318070 553180
790953 300544
107652 895986
33570 830637
556458 436910
146786 45182
716253 375700
735332 248083
946734 267529
277367 709738
486513 755436
464643 609907
319572 239324
360724 192891
330231 631443
795186 967322
222765 705635
713283 813774
560492 60751
737879 775577
651883 437620
807603 311251
733694 784499
947113 293978
319705 547643
623661 610407
132663 165160
747848 74639
252361 499156
249120 48104
62222 510846
660668 543124
519091 335251
884420 719105
519407 895112
753489 537672
386893 652786
32144 868808
422637 243007
309780 585166
232210 455653
790172 786442
658977 457063
628837 766606
226872 722309
906958 427106
364504 472656
892751 727148
75510 947752
856471 298222
21259 805194
416407 238419
762645 853588
198163 53731
834781 368966
488192 98144
543994 43739
915831 295962
134926 452380
321711 315188
150704 914196
279702 720846
520590 41996
905876 124932
459355 916286
52102 940000
863023 305355
267339 135877
979011 417762
212642 859623
953545 646761
605969 701545
362442 743666
273871 67150
400384 290114
820175 778638
757424 623363
548406 477180
532146 390724
368371 132229
879797 707155
319994 189963
319597 172024
410149 585206
537824 233211
754635 423967
30650 849753
298995 594595
488831 220373
897185 591643
691500 265827
915781 316451
876734 694417
29719 236097
146134 938685
264948 838463
817354 745731
830715 411161
212724 591529
820479 329518
650259 778549
522529 912820
183524 694870
49265 505416
920020 739149
269309 798015
111818 343378
318802 269239
671917 874606
764946 353501
127326 625242
497760 499412
96292 381299
846407 399315
695384 975356
399381 606007
25063 946232
645327 938351
240629 755573
60849 210116
866014 686558
613850 678314
558672 429787
456655 565277
954278 648293
379007 551148
866687 732083
479759 306631
529067 674117
186003 78830
749303 870389
346330 342118
20576 966056
349916 633275
708457 298251
131511 530025
814057 439532
384945 300146
787682 295812
238485 554528
648408 913726
775910 290021
750600 92065
699742 815786
507935 85532
252408 754976
118815 405040
24516 969432
347779 592795
911967 672935
154807 577506
339627 258932
766306 534804
388144 758421
127453 964527
44161 869534
882580 836381
888043 363340
689198 907148
79925 140575
345095 162838
417065 523059
231829 280790
260744 97465
369727 264854
663111 415401
660348 663863
260564 39640
289382 279101
343857 332826
249503 29514
906832 783070
787503 917821
49199 845478
448687 608681
136076 829198
474907 73365
657111 650460
367423 882598
137153 609470
320300 512442
260384 709503
753418 274612
694955 723409
608018 409274
129833 150936
620997 57239
82220 27190
802685 515261
256908 450338
232854 754599
230597 34841
476653 657818
224609 465698
356766 906570
640157 106764
335593 268478
284955 559197
529570 398292
419966 318932
605509 611718
233598 61740
189416 564102
787916 637035
780949 409875
52820 476528
838187 396056
914918 826319
307892 234252
979484 263847
725067 507196
144616 656775
691315 566990
203314 43137
743175 903462
699465 364163
637584 540355
650422 926605
503185 917928
441122 612083
377984 303303
387081 297312
355452 591258
89321 854087
444031 595490
241066 472715
616204 400842
889874 829530
909817 682278
47736 241770
618510 909421
353258 810712
405076 235174
180416 420705
434450 64493
51115 840029
808013 74447
513545 509619
642426 54129
977057 615230
767308 576933
772912 302956
332244 194530
891647 730142
615410 879603
50407 896776
57186 952353
660694 327863
849619 619852
636427 418301
366930 301785
734445 533747
637537 690303
407009 300171
659693 843445
642792 677063
672610 873745
762677 455826
497509 684333
608552 265620
873691 925703
311692 594739
610691 58251
164761 754560
142226 103112
903429 470931
28209 182250
221532 749693
952389 639214
174166 697029
595179 402479
114309 902259
729137 424270
341625 211703
258649 269654
759108 978084
748570 502602
45466 894422
272322 744317
698718 185204
864763 631967
324436 162741
459023 573838
148327 820539
81586 806235
743035 462281
76577 36656
35456 895804
729047 784583
224960 235276
334354 364393
26015 967039
732100 804486
619004 909355
426298 527891
783563 920988
70637 836678
614709 888989
355969 939749
838109 413073
376835 676183
99990 161982
66537 550623
175947 522480
749365 813672
449289 920549
131687 691131
207488 760698
582447 747160
889105 336054
793826 262018
96347 764011
178536 523836
697393 902614
602470 811164
872977 643476
563654 754826
837870 670151
424058 884611
746880 844053
579394 867448
918650 666446
420196 550630
587963 662823
226100 861842
195115 761066
625557 335546
56771 412471
932000 389304
584807 898081
730158 485596
496050 842491
894594 730762
536153 387065
636214 567723
351856 231509
647516 608237
143523 47588
622389 259229
304459 534634
799597 486902
648910 413621
553315 186426
367947 674807
285311 190829
939987 711434
250091 711827
687542 674016
310718 302851
624094 182442
609052 58915
838888 741687
822451 84777
663806 229250
517755 339972
45310 926546
68881 44324
302559 486232
962699 656806
757527 779626
785962 393747
668426 667575
766225 861799
271291 748180
411797 301008
144325 811171
802274 266343
749567 264992
371498 188196
815554 937936
30255 810786
614584 966993
531104 342259
94289 864980
255932 802201
932982 450157
760470 314469
139186 830249
234276 411429
319993 296329
322333 432983
254128 208823
322283 603472
352426 267808
848318 657961
95465 933101
251373 492671
884668 406782
317580 431444
88741 844399
519499 338291
345227 458558
214044 393161
302738 539981
114492 839329
46635 241172
347820 934009
881118 852631
420600 600307
53929 964945
803665 613276
140761 344897
377656 307347
681948 817322
891323 922152
874055 693410
814453 405786
165838 766564
32674 182421
44469 243551
933018 422340
279830 187129
297492 787980
648364 73157
657743 659390
850959 302503
64531 850858
653151 911332
691070 400361
158950 69762
826541 672297
124242 129856
102246 581963
666173 925198
474779 859392
969961 289228
40538 183326
844739 269660
148610 347308
371395 917189
329457 557572
644964 669459
885119 604963
98827 814526
101029 564604
575305 427663
166163 744143
98612 562209
144925 189640
58069 850602
499709 684420
255044 455797
601953 312636
604701 310987
713299 770969
759419 857215
220754 33851
106924 925217
765769 399441
389972 250779
267439 199998
958275 678025
603332 460136
242224 441273
335807 335665
599764 528154
121025 137456
244843 867055
927560 374268
416987 490968
63743 951630
109001 103871
239044 590474
807261 840243
872392 906719
590379 426068
405167 229498
293534 585465
367910 626870
684549 836637
698139 844513
383354 253120
38649 934265
850623 298185
28971 809097
442388 400255
196152 721888
468697 375505
909359 409514
363976 872633
376421 281687
470558 579098
682538 697832
696675 648444
172122 415536
768937 348888
919267 854921
692370 342863
810854 409833
934209 347825
631285 39539
40319 822780
674802 539618
364984 978059
522710 562543
45731 869639
149597 693763
313625 307379
176942 77681
47168 262906
277005 791624
243138 545610
248509 521463
871574 670622
336755 541863
214901 662925
447973 948877
717883 415667
669915 335504
260368 822412
124323 801604
942366 551729
540339 362762
275692 860602
377891 701637
55262 517744
187625 772661
695866 612211
800202 424076
30381 277247
66643 909645
233841 401329
925292 708997
213363 852215
312757 250991
180533 884867
825641 668943
262438 749436
730951 915905
972557 495624
454729 338878
373617 133817
578721 902772
262656 829604
20906 922801
592450 414345
313400 397843
35776 975962
119551 833528
460767 623690
567740 253243
234633 416563
910510 454514
253417 103924
305825 325997
362045 396135
357404 302740
668856 545717
28764 866632
83466 870118
148628 938037
518869 730537
516498 620653
120284 134260
43959 162826
42193 168094
278879 437527
979760 261186
120462 938652
771197 635814
102039 588913
614111 796341
460241 909651
898310 792691
856469 357795
701250 115226
754662 439791
936255 143750
462528 349269
309799 928713
382072 302766
359461 907481
312871 614322
300768 642034
771678 338466
98767 276861
311126 605284
688397 673361
650003 61284
671661 867607
140423 93643
36777 684005
785169 521630
619866 317497
637141 579620
973117 438057
870629 892635
246130 468742
560710 438951
231498 717461
396266 271984
878108 907835
762085 744599
766918 411106
558119 893922
43344 500849
542782 605405
765253 399999
366912 729698
283232 559859
164189 203711
971008 453486
381362 447916
697747 640590
244904 499534
111216 515306
443494 933981
658761 777625
266060 662749
114455 518980
73745 858078
435912 561533
714551 460123
267956 197047
594026 524696
690928 410141
672239 863217
264899 663949
249335 210618
275614 80383
596446 390945
543652 751875
291788 158562
446750 86240
128040 623374
924648 314771
330398 559790
19924 482538
780015 911960
798512 304051
158876 594662
957098 340962
206757 851416
47610 876727
449855 946539
32400 566966
27817 44098
806380 826317
745229 979432
291419 114009
372535 595913
767472 745279
34748 942840
400207 492066
629336 182662
457938 325407
130521 851864
452233 600343
120365 578529
756258 657212
191120 59824
362485 734179
292416 281084
760429 536085
77283 544544
800614 435875
240919 767106
258017 805934
964770 306532
588453 596833
696022 179990
943426 711480
394304 604876
475578 394837
692259 975981
68992 373050
883876 387281
291731 781318
321336 306546
837679 318606
734205 495340
711803 211749
585887 287913
714872 777827
655650 623306
689812 510075
776849 799249
321494 190380
904286 673214
727358 487193
205467 838594
656183 491310
222348 584037
695078 198486
743229 464904
572002 877286
719378 288699
636557 605849
551639 917527
421728 441094
248153 47541
684058 911907
516191 428296
347888 611452
526340 586784
227907 723131
467006 266866
455809 192193
831736 399292
872005 639953
942137 733680
38788 310202
555083 743685
588110 430205
116036 89134
744947 462693
162801 876188
907364 127198
274742 93425
921463 120407
261945 791038
673031 923267
362569 868290
870834 851149
214452 215039
728255 405593
337346 333776
231619 281775
95680 284236
850980 351165
216567 73925
909911 600986
176192 105860
46608 651950
835908 710684
451722 367936
46507 174244
861721 391961
637650 598806
398951 622807
919162 453854
225211 257271
122770 967978
540259 473495
787408 725619
304922 296274
778883 378074
344179 584649
196460 840602
582231 722340
459490 772212
395971 651879
175286 759497
82020 914486
28345 858756
87017 833488
165930 755934
771308 733146
924754 388802
236197 520247
832911 625091
573123 951310
406169 395091
586615 642079
661900 589479
822046 363923
538205 763817
45600 909337
617321 194736
55249 310717
741832 812800
235858 902407
52290 197970
284869 785093
129276 160554
853999 619562
125913 958078
780606 292529
656851 915889
917388 343489
116590 237694
536468 593822
36150 678910
252569 543516
524448 834311
196020 197952
288656 122688
248124 248944
799622 377429
549097 827386
402098 639100
258985 494764
809746 315003
705832 429647
650587 261190
867309 873146
688981 556928
61963 47147
897939 710769
412418 161585
242800 772193
807852 647838
385905 285172
861909 644189
357772 250572
247374 732319
970754 183936
662390 934393
635071 606135
606382 423858
793303 643200
765294 400745
367255 130436
726315 582873
827879 744115
645810 777615
403841 522764
323053 270794
95211 29845
791084 507197
277830 790853
235877 720044
611594 487388
259326 558816
364264 183403
693963 333647
971149 616692
539721 290873
735948 853899
542954 686987
165042 672615
369644 874701
149099 837355
75865 102506
482877 324640
769356 370476
696807 806011
920602 679326
246775 438385
697169 458678
201821 680340
701279 579373
809721 840352
243227 432126
827558 315073
699179 263376
287163 762905
580722 267948
406399 236124
352143 624475
844221 281030
661529 511136
643930 261302
59406 205682
921874 880904
641953 694346
200697 207560
225644 257359
277930 249737
324453 475126
457019 594013
206480 797499
178830 721790
455442 917047
752982 538821
131029 853466
126509 961267
74037 58027
659650 418844
930281 719803
301116 596289
696149 664753
622333 914569
286522 417117
63031 139190
536444 261775
652259 429710
168843 732274
338162 195833
325003 154447
495021 573010
369775 584232
424268 308999
689756 544004
788547 752389
267077 59217
515819 431039
247098 905658
645443 968539
369309 283721
828507 738626
489824 782048
341093 176526
703311 373156
106132 887508
972450 439899
596150 707695
746202 640041
33299 844027
811782 511535
724075 104872
604693 790913
876071 898919
911702 600369
67401 528337
573124 742421
233709 827906
254892 578705
362956 336422
140935 973402
572287 937755
406574 498529
89637 526196
660078 330848
628569 232742
136898 756575
260878 812502
685271 352431
464174 335613
92205 560201
455540 303041
192364 557460
74549 44369
347947 237677
451609 593853
746472 758718
641261 775730
785198 722220
626829 958735
253877 100896
622680 585186
91734 552895
727616 602163
309481 628205
656003 816975
206477 677187
140465 792995
179168 448574
773757 319346
48028 155197
615024 891242
458552 772169
972850 297516
525496 371036
71217 856392
785273 724781
811238 675394
811931 701321
473033 304327
252484 703559
836032 673503
771851 480041
197764 840816
574265 203138
568613 189794
180796 86305
790452 667599
499101 720019
101305 910278
59291 242422
969800 686045
384501 609728
125413 99836
772135 334786
351298 592263
881335 817579
340239 208611
25643 234909
521205 354777
799046 264508
43685 798984
372110 744432
351152 222482
789269 744995
594775 772620
958596 635120
813373 747777
776065 528701
693022 340678
820710 800821
780442 732823
171347 737848
231719 281121
840407 663925
750246 836404
621965 795138
510683 922363
203654 749351
727917 406430
870328 669824
41788 952312
526266 587620
582526 905787
257279 826046
390109 683916
835697 329471
166145 885414
620159 453092
959279 695506
54333 838325
162465 768119
167086 921628
954912 594742
690042 372942
671789 773482
291944 456490
310453 703714
265638 840092
118812 932033
791849 143685
441882 80231
44757 176686
137683 124091
713287 467394
877372 688971
580252 843335
208077 707124
154896 181450
735629 491922
91533 50647
732717 914255
715134 512408
749176 138499
851861 979747
572609 490247
633281 56495
835867 702102
195622 759114
475822 179909
54229 454032
817703 368019
517746 326488
555485 502177
822819 732799
291816 580604
320724 546655
963391 693479
492189 683847
237514 592599
215112 73375
110451 646401
641535 240849
794527 292534
794108 781521
104331 776432
628482 860769
344893 179777
795742 547507
647171 925134
771750 697765
646229 491410
252895 138501
839240 702569
892281 826743
32384 68112
290757 582666
122606 963081
176622 884386
588624 636104
839624 627078
268443 232733
499435 861798
271744 822575
380836 183953
443366 771596
358944 190705
912796 751735
140602 598119
460311 606597
531710 463318
531994 445072
70830 902589
245754 646891
317530 600549
791001 283404
859681 732644
102506 506259
338026 532433
762973 357892
407266 287319
731382 518159
499299 89229
964271 711969
170095 738906
184601 591709
919480 879947
204697 714112
262921 835689
437899 74142
322685 505538
518462 729020
765783 957249
943672 565826
208628 846074
900240 672174
622913 911713
760916 411626
141210 535752
556359 695859
845124 659120
783503 380475
754824 658037
464148 867554
130478 851202
915761 588055
981092 293292
295904 451740
773054 523735
727982 443993
789083 911962
710832 970029
598214 591663
731080 485368
405913 586745
155183 547099
20310 234245
59007 856113
202045 208990
263186 539176
226736 910364
695072 816732
682297 699086
536480 216985
73814 102190
103154 976317
705131 851718
753007 616994
147050 834065
705832 813992
894533 407511
725335 970339
934400 719933
541206 626183
371595 133187
544518 609491
878467 654194
425733 925332
737314 972940
441911 594930
696345 129656
470459 336489
201603 839501
478827 336873
928521 146772
433918 659667
725271 907373
208470 828009
52882 150635
555994 186534
690894 905617
332944 749744
657850 731949
542486 441036
74768 547344
209228 808151
212046 52216
449592 318850
656922 977112
932763 678789
173367 774559
428627 302027
710649 150704
151849 516808
197031 839909
780249 251309
81612 913219
367356 860892
86030 82973
96031 903615
140818 791486
879460 707627
476094 594710
257191 813866
324814 319071
612051 749218
61650 143332
240461 233691
378158 599824
814936 585462
954948 623507
613756 855559
725827 510344
274551 435532
565776 374184
951476 275663
882104 634445
209939 460039
285249 783118
634203 756240
389459 549203
499290 746364
671831 774021
228775 776666
800097 60330
327599 262950
307921 229486
526576 544571
188275 615642
63976 291121
741437 839047
261823 437596
659212 594238
376753 296554
104265 814935
304643 195097
929506 131811
699064 122033
562226 429340
77465 126358
626812 960190
137129 790209
601508 610867
450433 764345
227133 214075
392793 738050
110898 255245
256915 785473
461497 619712
814233 748167
259316 576773
614915 395777
399739 194212
369673 222343
895072 595220
334314 195539
60908 367023
153320 572127
817185 392097
657559 940713
483768 101602
367038 868835
696222 646317
654410 548917
392987 628447
833195 477763
23724 543862
497016 916490
280003 565559
111160 800467
195628 756048
267930 418920
45098 431864
367861 551041
247048 577747
433830 296052
882455 675233
618414 749856
89875 32210
666567 341559
183862 746769
413568 564436
324839 489456
26431 961767
605568 52715
831338 687642
53496 242502
700175 453444
59382 498926
56481 242241
879270 906099
362303 290961
38387 869809
460328 593544
405975 236509
31445 787553
675204 844082
350666 291907
130293 978107
645604 646692
648364 776888
376728 230434
188601 756884
26110 345146
764558 460376
234575 517314
571613 931279
750629 658905
311489 608756
867696 872452
265699 827310
614366 399336
516952 211656
919055 918042
799709 497867
210691 490067
626766 768108
664176 583531
247557 697214
294719 296813
346474 306526
77448 358326
192502 394454
417478 588509
43578 928895
976735 602991
386062 756608
568677 894690
883683 487977
625596 582625
216139 688184
329977 630288
580749 32357
515682 889631
950597 634166
369528 186586
504377 203381
379409 231687
594688 351616
76531 633567
913031 605955
60508 527279
221399 206168
290451 77271
729085 971160
759636 908727
139606 124138
734712 483856
977385 498861
363458 592247
828556 407952
364442 614246
584357 646816
244405 610874
817502 669648
455906 916709
857733 647059
593988 666217
40184 138707
936841 625027
590026 350995
710915 329889
978659 611714
643769 489449
63382 135991
409521 450440
310673 501983
573332 225884
25049 529255
347086 468371
149698 870643
214137 615512
537401 184003
708119 970177
916012 676100
638996 846646
912990 743906
722985 487081
622896 583747
200095 719110
88186 867346
67317 811030
722988 586385
354578 567264
35905 350349
797672 980141
711130 539103
577766 34162
840416 658801
185574 173982
478688 595230
617219 968640
368221 728724
97147 950035
787943 414185
354893 246896
423194 238537
391977 243327
711334 836570
510546 730196
542000 692082
749927 753263
28726 130043
855395 348250
108493 76555
863082 363391
120203 964508
429000 550655
310113 597879
73747 550249
520534 740383
151764 498740
801615 650990
127590 579387
808356 963658
881333 832125
977655 660084
49395 587453
169638 652599
84662 574999
185808 780567
288140 559271
364633 728668
246520 504603
384745 737719
395506 551284
977873 412207
58536 874777
251496 57144
532021 580022
286977 470565
323387 271306
614703 861884
552385 799185
524690 317441
890308 363507
523921 295300
686990 842814
237920 728763
939330 212417
917661 139135
694664 572224
497423 666429
825402 801418
223361 740410
375789 304823
91015 552788
783869 628035
460618 369444
161671 700729
153913 704875
334478 875458
540987 378772
230805 682217
224458 76280
849947 288119
391762 336055
521085 519150
231072 281741
39347 240319
42891 426453
588629 637633
818395 326180
697227 651085
576855 427491
216730 206440
578562 922733
764856 399859
758159 610615
504189 286523
550759 185848
44263 61074
658803 497750
65797 818548
765977 398147
938935 893045
493696 372393
147041 505269
726818 882345
231406 234195
288815 559338
739115 478010
225652 205367
247063 710977
210050 687521
283732 784554
924745 446870
223023 470262
850314 288353
384800 556680
909586 434388
182939 696379
723395 611358
323496 640024
166444 882261
325421 169732
367214 730226
21250 39522
941982 550224
308015 589391
621145 583871
329484 654242
214373 736130
637572 48344
53121 895416
237495 44001
974375 522397
213923 748380
331703 556431
407386 362466
41453 103851
593954 833281
851342 831806
65519 848443
45464 113135
470343 432127
366836 732233
561051 187559
472881 436592
75929 545761
817920 674289
461838 618613
520357 62009
775769 747432
766739 850807
30787 278707
910190 677699
728294 797240
375054 414132
712031 773505
275840 819174
221136 713228
725465 922890
335588 335023
287940 555028
228637 561783
564935 561628
588284 196641
319831 387198
532798 553564
746030 642280
670812 724821
60399 919220
380117 740104
581877 922471
299447 478011
220659 887228
122738 836828
787391 712717
843718 627717
770653 806656
612767 789956
406098 501445
558353 897428
798345 377951
410630 342932
264590 522259
619397 306841
185241 587389
171638 414369
117861 346822
559683 919292
639458 125799
925165 704041
402722 227039
728047 265532
71046 305551
416027 606238
94537 66344
139555 475633
161793 751849
710751 448282
407912 161993
949718 295260
269174 277326
280018 732336
250317 580463
272915 718893
416451 565302
368759 293371
746260 504231
826169 900208
333905 194887
37953 824850
254745 213268
68555 906007
246973 411336
344092 313799
419482 309083
407392 226602
802617 384567
578257 651864
791563 767233
586125 959207
882004 674866
734969 579404
383944 344402
780917 771831
562739 732075
86169 146651
506310 740377
654535 643041
179511 427282
263514 824343
810622 432049
91762 193430
72972 371993
137920 961840
458726 543048
76962 97254
835880 629276
47391 968627
680508 774076
842873 660007
125905 854492
819327 669839
616410 286493
790948 382111
774301 729910
293718 96340
755184 458404
75007 591428
392567 550905
610631 285006
213844 487198
240864 854924
739006 814247
251712 745355
158217 854616
819962 686898
476158 568514
482768 35026
828263 893281
849661 735323
654510 641503
292219 561774
214489 94585
397418 210991
672278 400006
715741 433713
98287 185001
252164 701112
905265 823579
390923 345295
589711 361823
456887 341367
703289 849652
541116 384486
266934 563198
292579 287184
783349 447054
904371 339393
265240 533701
872062 921241
82251 294675
525803 436874
505974 286745
37941 768306
414527 598561
293736 785584
816856 85112
365798 730978
740585 649316
364620 332609
642426 966786
725810 596730
363528 976102
586508 893341
399106 889370
823028 334703
438052 75176
395142 633953
830258 415781
173131 697098
229276 459868
814843 668902
356595 864030
632464 41586
21157 977048
264321 825718
235000 657246
127205 685376
770165 473287
748241 752232
318136 310913
166914 128196
293806 98279
261243 439554
742261 750566
898123 822836
755839 754294
39893 352985
975677 610738
833746 892078
929824 720873
298834 548380
325312 169974
836108 426645
481979 36630
591960 908093
491353 900308
468274 532983
273018 247850
253941 908768
769986 864814
650725 66489
581185 852562
348787 659038
434199 217178
809099 663253
525684 242465
99796 106228
213873 836443
398827 492383
341848 628697
66956 909228
110631 887012
43507 957769
117716 833158
735632 125738
625181 374779
608408 57319
574694 38574
95117 87661
58700 143534
738692 315313
539059 344305
353006 504697
322092 266052
914436 671026
261088 802552
511437 731159
487487 702123
785157 728597
403271 526119
662928 231475
766799 399667
205347 26310
574105 959694
734693 453219
300993 482777
575708 325805
396374 887888
235503 732218
754092 753279
871122 383039
859713 825869
324188 466194
279034 711318
102128 591550
57438 814109
631549 56841
680932 879672
127767 650347
168123 639574
78996 92784
448490 765873
243001 846917
741788 909442
388983 280267
451323 543371
798047 303844
921345 341275
51466 448857
925953 624161
56382 83146
193747 77559
875289 927700
297300 473328
706476 723144
468408 196512
134681 806504
356504 179119
750778 607482
32603 239303
409597 345613
640036 131022
725619 681394
946008 201940
80893 910544
777404 390271
159845 486353
725669 894898
33006 771105
798171 969141
572388 225498
599444 884591
204642 211573
123608 872131
231219 41519
88750 855044
287506 119175
310830 617759
864129 640126
567762 464229
445665 535476
542454 684429
455682 759164
927940 735613
929963 609648
60727 970916
593050 760282
702732 449908
753940 977610
791612 788268
651309 658495
647469 968807
368458 862699
648255 699244
517758 563340
38625 241091
694664 567549
913678 315430
394353 274507
204211 715738
59952 51985
34028 890381
693566 485707
234990 50238
646517 960982
348700 300284
385493 39001
774814 377507
585767 365553
365448 260302
530042 311655
391863 169848
342716 347314
213166 29686
573585 506308
483675 758366
480314 359531
796827 547160
425132 615284
151627 907872
90596 470037
915380 695557
584470 923460
99157 803794
798085 437604
403167 607405
824169 338138
636349 577826
41135 326159
916449 318430
495687 473904
152432 796367
613618 540770
704528 384922
136106 109817
786850 652768
127468 761439
896389 672369
197548 840519
273724 794568
101547 268336
734687 849669
701156 462760
731937 398526
826245 409312
459743 593963
513115 733849
178798 519228
759755 300757
49763 943513
836067 364538
109831 805805
772026 866283
228298 746273
932851 911936
116234 828363
424917 549724
827162 727688
723174 324663
45933 957526
51498 478962
327442 276289
887486 832521
626612 680127
268532 459223
695285 350424
69729 372219
828826 414483
785774 647929
241078 822598
57397 458690
664038 774342
591986 840588
154176 549877
289834 562941
59190 144822
893584 408512
774506 484437
673366 874407
924120 704090
22871 973263
388729 436967
155355 545562
975846 678728
60233 484171
501239 722327
97038 65504
412263 485112
116926 400657
107169 770258
291858 302944
157737 777688
85500 856536
407757 562686
123304 825617
716500 857972
391610 436289
503940 88423
250933 815118
611610 398326
856816 626799
320795 272139
81505 843111
546963 863034
372897 303043
809329 229948
289109 72113
334226 175390
436125 71356
36383 680856
804315 962345
120597 942297
252446 209459
804496 827090
824056 440306
836721 715038
624651 567280
797068 977849
792799 302156
435296 373694
744922 787563
158812 872320
278871 790144
751987 90777
604484 420188
296000 653409
254421 55329
169863 185303
693635 331197
595558 407038
614109 787556
583426 881348
584861 541531
256044 51929
633158 853705
684383 941173
813977 443899
43823 851727
943413 563194
161306 741359
701882 870946
483838 576793
297449 542619
587734 428405
791154 765446
359907 217659
294815 573197
687827 538008
407403 286369
889208 363152
767649 846366
603398 427816
684517 843804
208013 798336
47274 879275
568526 874298
24275 788802
589532 629964
151028 356213
401474 511763
568445 849590
795734 613607
97472 159159
54034 519322
170411 110790
24055 552822
753528 318312
621538 910678
143077 685839
842946 337438
610638 785986
870468 911569
159838 737204
162200 630333
471077 435834
921046 683811
38640 975384
461888 770262
790349 742998
655641 423052
895477 703329
818849 647167
335130 546945
969255 465074
362203 611378
636959 570687
758719 410637
302940 142699
256227 803582
933803 719753
59846 431349
173643 884825
347641 872436
848555 400062
859501 733099
711101 970046
304343 148538
358775 176250
805636 246170
60412 206383
168146 546067
834540 897558
88351 109258
634404 722449
182532 82613
310338 537676
757605 264794
22006 463463
978437 269053
399711 655322
70890 839872
105079 883086
883067 632118
106014 366471
754907 675054
214435 759293
287468 557759
567529 261976
187339 783446
311335 534552
765316 274769
98537 931699
920641 651075
56506 44123
308017 300650
191810 31302
928780 346522
360572 298092
576457 879342
136103 612442
589067 714525
942822 698197
503847 723978
501878 744226
940267 698730
941840 896633
757581 445462
448295 318377
562871 433791
741696 652763
278769 191852
37625 770709
571159 467499
511208 592732
732723 678198
523181 737304
955940 701703
693210 805356
120443 699751
330000 145938
235756 450609
795734 437842
58640 424374
175008 463287
237803 75978
554728 44305
979839 292705
964735 485832
202567 681542
760245 397883
162984 750699
403435 310925
78742 125867
749006 872434
882125 847111
242582 277508
850893 300667
325645 172364
487995 718191
152035 568101
786795 941024
621413 354792
746891 656731
198828 798979
42568 139210
414354 780384
718219 771447
552866 628862
81676 841918
134623 666641
255955 29372
289629 116847
669681 968553
314900 772160
211792 704868
297002 268874
513201 342499
302092 484887
770218 945430
30235 959713
558999 456151
631241 164685
535802 592757
229445 736720
444375 393671
465625 533601
911303 459862
694302 579621
786914 426280
706172 449191
100896 816162
701733 814847
271459 236401
517384 766663
727250 807869
406149 235062
592988 772390
535941 371419
26529 943531
216955 754622
649902 69831
69334 915947
970649 457511
891330 728649
620936 682439
794761 504052
818613 595913
207350 700753
835008 317867
109319 121732
498495 571766
372728 309236
605327 269739
607584 685355
519637 797112
271836 561668
769057 320434
967392 675687
694865 613588
837804 657083
776448 932645
182593 712059
572579 762591
99763 935134
975522 659052
265048 459030
448338 29903
740189 508471
304904 149141
366338 728947
79326 937449
736519 315964
854351 676011
308791 556050
761396 646476
420628 801975
260254 803203
647871 667322
348129 749216
310045 627206
781311 890760
89458 856391
946956 906105
122587 689300
336803 195007
312380 278619
653902 647341
693489 532643
66634 870008
566070 644796
328451 636011
430209 300451
879504 610486
654280 606559
492382 845040
68276 114319
820027 782539
472464 938189
451334 366769
733056 972156
781494 518987
733302 497739
622452 747565
800158 753491
129804 847813
475882 878244
337929 599061
613750 907322
295636 250079
159832 769517
165922 864604
55304 516464
725442 285100
343469 319374
197388 841190
396969 615247
457138 630761
42352 679853
76365 542748
175405 95054
33352 873324
884037 333039
36662 876345
710446 431528
925637 719143
102581 813472
150374 907277
60220 126317
373867 149548
51889 246204
649734 701051
668408 816430
20759 475745
661684 348611
914596 672460
470798 659347
621256 770907
296891 803025
24673 394297
788592 784681
741145 270385
979316 256132
310818 625474
336593 596795
64944 611923
129151 979841
781478 975383
860089 731520
967524 359211
308337 224287
752913 836610
774078 739978
369147 937299
630008 743045
525083 935257
40518 811400
185371 523277
207316 683584
947057 414065
856732 888901
90131 766944
916110 602387
469521 105409
669105 773795
407726 285312
427703 572562
49670 889118
391620 492983
193348 393088
91557 290088
288259 257547
286347 246434
151481 669349
241382 771780
495716 195086
119673 646568
392055 681826
731842 502854
130657 944990
967844 306030
465376 604805
813961 407769
696843 874718
225884 620165
732568 532222
450666 596862
845863 340296
857411 483805
570106 372416
42785 313002
741031 476217
834571 363897
726165 867208
465867 931429
64818 834772
267245 557779
851989 941231
333840 255051
310226 620580
463111 769978
746690 715379
726042 514498
750696 664784
671159 423750
436363 405593
277085 27711
40580 912799
655954 914450
451261 595183
218191 583452
248381 854801
496932 865292
323568 161582
838623 434296
739026 414594
515483 688295
820332 365549
738768 760354
182929 222187
813957 679712
762223 267435
158758 39988
932482 135205
56972 133870
404522 236123
937622 151971
324750 928890
199280 125887
315706 777041
277097 561324
884174 721017
821488 395830
448117 164989
79812 876399
243814 448085
602176 425030
858351 322596
95116 592352
306128 644032
905242 722745
132511 453329
666103 663149
83005 79806
237658 682836
381667 665843
318567 265534
241896 37735
250016 840329
717171 132650
119466 833889
803245 48347
221910 216398
940917 907983
655284 912971
217084 254566
101636 167969
522603 224233
704803 201909
95058 902140
917612 827289
759014 257355
832451 280134
503200 493865
36395 953748
405342 209511
855530 648058
365908 912040
417326 447088
638298 56195
588848 424064
182238 72220
684074 911445
529254 753895
888611 702084
84734 868614
86530 874814
386871 293657
306750 610899
773835 747304
392172 651469
691126 212129
511244 129371
783840 300220
246085 763342
103385 107969
345576 461177
680926 421694
867192 687726
680902 233999
691967 224461
362721 341219
91027 881272
90541 535848
573975 427345
160846 628199
445684 38789
728871 679360
253531 55718
49239 144100
528330 724013
125263 657421
197973 680212
251681 907600
37113 533121
604499 798578
69162 870891
388660 246141
907134 714088
670112 867050
598991 381837
765021 582692
