10000
140689 87457
384418 901516
924621 111619
672095 156590
133984 475639
992697 786174
234638 516616
534126 545679
186666 838640
607377 167599
230951 492922
306866 882935
639415 963467
930984 885846
492074 959888
399433 695175
819949 485701
329288 300079
457809 181547
947733 570213
143665 678376
796763 328146
470970 187700
223909 774768
957131 405445
319732 520523
887538 785078
221902 373119
816808 493095
565257 336290
928535 272781
992746 30189
201608 60744
50864 149197
829761 410241
877666 215312
761977 853698
158753 314160
99497 139088
289338 29175
845016 755903
359352 926620
850869 944056
256273 218633
286196 481360
549848 864734
765346 747705
460681 374358
288295 992847
172898 554310
384148 904144
607257 815590
493902 491236
210491 836855
983606 690518
70841 458211
268431 372275
814556 212634
410018 196855
931629 678343
387207 913858
605984 965174
792628 372241
287168 487526
685328 710100
229913 128016
468570 379156
224893 210188
313914 413536
762914 112362
988558 483004
742989 954045
575713 387755
713356 151430
45257 627090
39891 972613
133603 12045
628766 960632
713726 52908
857699 123262
318227 632685
932149 653786
935795 720427
259850 27785
912229 890078
572289 83951
1471 374473
860940 228303
599641 967276
130240 603065
411287 198005
227942 40795
502838 941910
293344 926076
592865 230497
626683 83331
68715 17376
362906 154896
831180 967144
764741 793247
186565 368919
624864 635512
135965 852441
282175 371727
637466 573693
964081 97312
761872 722335
936203 125550
444461 584912
259515 190940
684335 216540
134899 29000
865957 934212
972695 366183
217802 228810
110382 43881
754890 30061
395500 734634
346512 349833
884078 732686
271967 15509
547977 244086
628828 997364
353987 157113
840576 352966
510062 901716
43160 497094
249882 97864
634094 99718
678094 424367
358758 806238
8728 285942
662403 796073
149415 407513
905223 992026
889483 940926
738419 1065
15576 336978
541916 142484
875882 288268
10091 702772
252518 381440
584363 24465
299589 101730
462606 116899
877483 852194
160966 1950
811959 413471
109851 457511
248477 653330
237529 448059
11716 759176
232638 914264
719053 447978
257283 762479
829540 959235
118451 534086
387808 359062
511999 439370
93230 319308
21688 351129
438662 316848
262336 21685
745656 683697
695225 129054
961411 146689
450933 89117
375528 520488
82335 799245
631900 496219
529237 812346
738162 314564
139899 905268
205191 587631
504049 284708
617037 289614
179210 323040
670605 191158
96703 161900
894318 401687
330225 871059
307101 920771
303769 943530
823713 385284
321388 630948
868552 306220
723899 934340
353917 799953
101231 745686
135917 696727
412092 543591
916139 396132
125305 548559
192412 112083
252246 608405
500223 763223
595859 316818
243407 334134
463394 473112
588171 674564
524552 750333
617713 928116
168121 928343
531359 981344
419386 149621
717330 284426
47439 34562
315166 701964
744061 999786
419007 294058
797983 675791
590024 245742
139960 661236
982812 384160
148320 498798
100305 505871
932414 939400
886961 987384
615836 59584
669679 894360
722346 227295
925057 929885
134884 621128
903257 729682
405622 76729
330348 744058
198684 379560
6794 64680
683415 917342
487439 552153
935787 796204
506440 785640
238463 657697
858750 507369
674390 613490
535779 533437
560100 549194
690821 147675
157661 205614
637385 563331
764972 664613
863570 720971
648789 710192
180491 281626
154812 165450
187253 626146
358244 892628
40475 190261
69334 831572
552367 297711
158376 402759
310668 286561
82773 238851
350650 628413
827217 414237
537648 977218
668555 292573
617955 148925
477731 758495
457934 715723
970482 660448
77956 785959
439385 309989
631708 936344
460332 185489
375191 555957
628041 363742
144365 105814
923097 908468
87391 648317
181754 101614
589876 387875
86589 912964
758757 611334
437516 958890
959071 161493
373059 142074
465926 266516
51804 667050
211438 867375
470815 335482
1293 995840
478570 564779
335937 571383
360389 589699
509423 911859
809619 944162
146034 41432
768337 985768
57266 82554
663187 861122
226170 736564
628817 220036
956235 757126
188772 198387
363596 427454
670074 380167
366188 85085
147363 160109
964307 669315
853111 402056
572370 884777
211515 820320
247423 923770
696418 692067
391491 910120
219266 322060
297766 492779
723531 114708
467615 685811
813521 570767
217414 907169
939054 671529
863379 413926
230786 915989
144602 61727
318882 988383
781914 400505
93177 649090
518956 310292
390654 896585
479271 843567
917583 760906
321165 522363
836443 788238
31563 798535
19504 769436
493667 523222
974109 742069
425320 898073
4118 392563
509743 766757
243729 134342
998900 562255
663191 627453
994031 885348
419252 864557
849543 494170
737980 935008
700001 884539
3278 324905
26456 73277
133983 462017
14213 725037
915842 579291
570645 284684
916030 91664
603139 283058
139069 82415
48016 945952
808925 37065
636802 988313
233655 785710
620389 29721
62601 402363
264456 940188
329823 820574
360146 523972
219777 982849
11967 913066
174147 306060
993399 409743
372048 523776
594959 754467
105303 917393
426961 945418
749963 488396
16123 421194
380604 633901
586683 465797
814042 158304
198759 211946
972441 664670
910509 289408
583552 577183
280313 676046
350974 854395
87050 817362
279519 461288
430688 248795
6045 958551
383434 284249
350824 444043
654960 672753
314035 578630
459392 889034
619793 834005
653793 703837
621188 74247
351663 240484
378783 180364
492728 744232
701831 778590
94975 626399
869060 229429
28187 671484
860050 437040
830821 158565
485689 292545
3210 397891
934660 483287
628516 645590
403344 819362
531115 177785
9326 7230
124780 622776
478960 798015
241059 575769
524778 137929
768721 10954
103446 334367
107554 783582
872061 11489
193722 246833
868153 574595
726802 949325
580476 731808
786334 346173
364378 576440
40891 59473
812913 604018
139870 148874
694125 299780
277481 464693
824184 278701
162776 622551
444356 743006
967673 525618
792152 460089
401395 400413
992907 460207
38340 893748
675733 38332
862201 842986
654367 579827
590676 696267
18989 598790
223227 35786
761109 26181
100316 158012
431198 841429
724992 379542
279182 659341
756651 22418
172625 587438
315418 184982
560512 190065
224549 548486
439263 446195
732135 695747
8287 983485
818476 528867
677693 635369
680109 164380
707494 174247
258980 283154
101410 980937
964750 105573
859519 23415
474684 690042
578843 915450
316779 384136
495501 255751
114723 203763
243414 905651
541630 408066
489851 538040
681595 634902
228209 117281
740220 251820
276982 488598
876164 680547
624889 605012
880582 624773
206658 166778
396687 3626
360244 349514
75337 538084
2734 791232
392418 235573
894654 799088
350753 81934
253332 973548
157598 589885
436056 302369
854099 960724
867154 405758
935929 564607
39892 610454
6061 152143
493251 767153
660587 491588
999227 822742
202034 180568
114913 496770
717722 367704
21705 956376
280306 482141
907490 859676
678428 550814
750525 640183
942654 560261
416853 241024
305773 481434
738349 998905
525418 972541
144550 258479
725213 693993
533847 542799
696744 553757
959609 989229
23776 935875
632671 480895
12289 155960
244337 535790
748395 514042
340193 356092
10811 644355
777305 212618
237908 6736
818168 700949
251653 652649
981176 136338
173273 156009
620783 166757
779839 81791
693403 740410
995285 958772
299138 389403
858463 867062
305793 698027
289045 606499
932422 692887
115999 539679
532272 334626
228724 79972
13668 781508
935420 888865
188235 258881
130683 965352
990321 412364
339986 523634
287558 96942
499932 882910
314902 685420
276171 994765
643437 208353
882681 107207
745611 462888
504329 976802
249406 111813
925125 573668
859958 703901
256508 435893
209114 156918
170853 126042
582400 428700
998388 968744
579607 350811
608613 305915
812965 89769
14501 120653
865761 926702
907921 110959
170673 214051
97084 93201
278473 359666
714722 258507
575256 806537
617794 384263
806584 484702
692422 198375
117191 72356
423055 328834
603872 790752
651920 635792
538658 558008
799344 963287
508537 927601
671185 378922
511715 317356
394324 224962
684017 446966
17048 429836
132273 814319
76537 395694
978144 680542
303322 277778
832817 287979
121710 981110
591699 367804
70071 322447
843216 976651
843409 682554
675043 625491
820975 151955
216400 570015
527766 340065
252695 206624
165219 823946
226909 613184
650601 804209
332896 635687
307481 44409
132958 692004
241471 147035
727126 777265
44029 211039
325257 959085
818893 555179
262363 854770
393111 359740
696457 334849
798613 682794
96871 605713
988104 276495
264522 618542
367292 68404
408083 544446
774159 769370
43891 235818
839279 215362
601397 602426
924149 590321
47227 203354
472870 993526
483445 501161
819963 191073
90126 975347
961698 95755
971966 588805
82673 488934
628186 174354
113822 487079
667710 358329
372506 123692
776803 199892
623086 598791
504882 360834
680685 978737
775376 708544
370101 341635
787825 614953
991627 152773
899802 354798
32801 504496
679237 488158
746631 703264
711563 437354
590208 127994
877553 606943
517097 813525
481879 581497
936657 246490
902568 570217
508072 606616
257736 767447
106715 785687
596475 153645
219665 393790
770220 855897
233541 260914
605825 605064
975700 871094
162711 185680
829528 267173
41956 772625
199954 390088
379581 291850
999159 47924
891341 123904
895161 983897
796919 939411
76680 206506
782123 376947
835087 111392
422959 953068
668482 338812
311983 341588
461172 639959
401804 349661
650970 416115
354344 186437
977643 41030
463855 875286
989249 932150
455810 800581
656605 480047
344958 66346
427822 140404
175684 800926
164779 992174
85727 670776
439264 904546
813463 533781
91692 114667
396790 447823
467285 859967
690281 404046
533780 858633
79655 265300
896865 764119
442213 235069
395812 333240
475842 668477
601264 614690
754772 980020
589284 427864
201237 860313
195724 720534
748190 450378
946133 85778
631531 697687
57870 119239
950854 12199
921282 366027
13577 308636
693244 756859
956622 605171
253289 720989
30612 541380
846271 112850
832459 663319
360825 949291
861888 979255
206738 863617
542885 897500
203675 474909
334470 655765
752405 577321
170197 106720
425524 858608
394600 548653
53859 615282
57084 130894
14917 813956
506463 943537
855694 99939
877762 356938
729140 781830
172665 838681
783049 880444
643576 949489
362533 591224
308732 618516
689476 295462
279028 376909
515570 637229
911925 833714
695290 682941
462857 461121
60897 509850
308727 228884
611578 475997
756799 148470
180800 587708
481274 798117
940194 708557
346751 712383
683819 654763
960986 710346
202118 321080
860286 673288
589282 874146
871996 64406
911770 886331
709057 645473
828974 425931
91237 889538
971444 667439
806621 559958
905122 971941
236097 681109
782007 583513
197648 831516
785363 924171
950659 246453
16830 988434
845180 994705
723383 320382
69167 216259
951756 136422
488740 417127
294658 906816
157836 762993
644127 339932
157765 778725
997848 36825
549582 291359
559897 449803
604057 83702
243375 387091
465814 219121
755004 953074
731515 952773
920156 105162
185772 166618
597615 652309
581130 441089
395042 738113
921277 906410
312948 241484
378467 555237
548315 716165
376061 151641
695658 883692
97443 313795
439312 42376
747442 817340
755282 526635
521086 387274
563705 769970
601735 820126
261898 332912
245714 244211
353072 458243
12460 648618
683197 248251
333552 46292
660910 142899
691130 646110
525481 814618
564442 411692
740137 658484
608958 528690
721554 707667
406758 113899
255429 250956
839458 31320
572938 214598
566852 581749
190910 201116
362861 515748
84336 934262
732709 206980
450678 302282
258337 483174
720787 485455
693369 776163
730822 94187
750979 141012
662666 759832
429641 922313
171862 118953
14332 723489
241702 406748
55904 170864
464538 500454
136758 770164
696891 313780
344840 220071
293755 923557
967958 541402
862645 304219
168459 372435
645810 69564
618718 831425
947986 405980
265147 266196
146212 385170
700956 922883
635792 78397
169736 786740
697802 678067
871667 501514
961710 562678
266107 724442
614548 982224
557226 432522
365185 723691
987079 506470
662655 545282
454235 869700
686364 627454
489058 617390
103003 340527
777666 773003
64082 61319
851453 637088
975277 740206
333897 659987
684732 21987
421708 150705
380246 14190
775621 706410
695824 379565
547115 24066
524273 577203
36845 930841
533813 860495
709731 733828
461689 604678
580804 427208
987661 49655
722502 1426
355867 43810
977034 266782
16323 544129
442465 349454
447147 447533
97084 885141
290793 235314
511738 687767
286854 932409
124130 348657
163059 864544
129599 785109
723410 174044
378854 743005
689934 703393
815681 594419
80718 156422
288774 860229
156743 876160
544667 28643
600259 409471
284297 733382
847353 751323
949335 680143
648675 734245
457599 835717
170711 102726
257934 130165
4237 374282
209400 881931
675899 271497
551183 527496
999355 918016
214345 905518
836057 521126
933720 692001
680369 734971
924743 625427
391703 169497
726948 205853
204317 971821
263707 478731
913898 111309
855098 821510
323051 722928
948532 419369
776745 319192
483573 334120
391493 148874
657371 420485
917711 721872
390285 851341
422662 531770
529732 771670
261593 783744
815732 219654
110722 814606
122474 634711
524905 834651
697349 625521
633733 245647
923672 665778
574608 957144
155680 495100
995302 792573
412120 564846
975159 212969
890824 596185
600522 700176
579670 440020
235227 701178
830885 89882
634310 831988
518982 814798
262938 121962
781341 320698
37618 240227
510811 411936
142505 117332
11991 568378
370757 292508
90949 472845
232434 121549
852117 511164
264014 130090
778184 101863
599034 349019
629141 44235
771930 425165
200856 484559
978479 128534
70153 658268
417367 345134
881110 422319
94976 935857
165540 575554
161177 650447
260592 798265
856480 620642
327178 803121
827554 845128
285151 861610
196135 355442
117653 787377
643422 860452
72940 2733
548396 893886
906695 981046
885341 87392
38695 918601
51673 988933
859850 805887
892700 629255
96439 402362
139232 784589
650044 373519
522186 18901
832283 179391
431768 546117
450038 379193
278547 28093
321906 262024
927895 75997
904610 917483
299046 774336
729362 481677
37185 472339
406493 384813
862253 379641
915710 60976
997435 478090
826548 751249
143580 60778
773015 338229
841672 450170
901401 824310
392078 672035
28988 435613
267699 531638
36760 259110
631692 126842
882618 574435
355717 277742
697878 440466
582891 948491
135841 193089
508653 19113
558412 148423
761113 451640
266421 293758
941718 256117
945083 623025
602849 604141
737971 236696
819650 528721
230774 477741
303870 224681
89037 859958
216851 234123
507325 202574
441109 447795
579571 251545
184966 714743
613006 431890
354205 212906
559658 639765
342370 933709
984455 499671
994409 804683
400657 56998
649045 824445
443782 644700
496679 309283
87073 305437
673135 885783
934344 265648
33717 860453
584244 847016
737344 103983
686503 681399
390951 508798
41441 873651
864668 287278
259460 723554
276773 630406
346829 19843
768899 240110
802913 857791
350420 420811
145020 318235
593781 514245
818955 284132
277088 982434
909511 233109
744210 132369
317460 189169
181136 786517
963093 246332
712782 573419
143458 907909
868031 371218
52148 120456
705466 486106
389284 349139
719078 516317
794038 980430
873501 999087
344746 381853
602171 816785
808413 854972
617174 366034
340466 206899
965669 745927
680693 791551
527083 22721
610758 856762
590991 849049
680370 580970
461288 926239
52589 17692
19512 611797
184420 19161
847240 804146
475966 536810
856558 348254
542712 345760
486353 322616
807316 741227
413626 372975
18036 680412
187463 227987
482689 581445
112940 709264
626690 204645
499819 226760
679172 744807
452441 812135
899215 290665
578663 781293
912604 855992
925634 513839
66977 59949
495943 90044
748879 743822
118250 813685
608081 107202
816962 566875
372020 478502
576969 911574
611508 461619
38149 791517
118096 285165
276346 973851
516198 992819
307762 773981
190273 545871
426167 474750
43370 547988
712235 347048
4839 579038
870575 611440
506338 57584
23179 675669
486808 249686
391650 242815
85513 693615
907364 914763
652804 915022
817618 613897
248842 797840
106665 425196
26931 278096
576925 446395
98370 435276
833895 695293
403846 948032
666982 859886
938206 998522
499034 938501
335202 107075
666759 306782
804436 306972
61376 193594
502777 497371
970060 960907
257527 930213
850333 596475
480014 234754
121240 734550
464262 843154
769224 287176
643000 192363
984450 638944
214514 322094
469171 122060
935546 197558
955503 824361
386823 990158
284091 395119
82506 492066
545675 414477
120204 833064
384927 335959
902928 257168
255021 48957
420186 907619
845442 103208
532897 182471
115296 662649
753307 171980
279733 680292
727709 672054
926640 938156
625405 134535
192475 520671
709470 600038
559972 611140
25371 281420
597881 239813
48135 621943
522279 438209
420371 251840
878569 342712
377773 427562
512599 648745
319073 848473
527912 276033
967852 519815
442267 757115
551225 493442
152415 785638
407274 549609
53971 37873
62725 817366
226190 829651
908552 326989
530015 344296
758197 931063
291446 820895
2703 775885
527750 899535
880216 200969
978056 680236
87206 659240
450444 509247
731208 794605
666435 546075
133042 522711
369493 993279
562180 535554
941568 878866
944731 965430
900626 919542
713666 164579
197438 139013
869696 677534
752762 71448
959495 252874
525362 116759
815106 905196
733164 706753
43194 668718
450511 445613
926478 31152
517858 53151
431240 253417
597639 561376
254176 530008
140769 372409
668180 241113
43758 680717
434928 430794
691154 91432
484500 746586
667511 628897
716907 373494
627817 894905
818338 247439
746742 300285
771577 208228
139487 492476
893423 156744
716804 734370
542903 297851
796931 830287
926016 72426
200742 606440
779683 470836
532812 343215
447867 826381
915299 94431
44827 975699
334283 83298
48466 951426
586152 188993
255603 397629
612139 113045
452065 25097
410845 684833
777679 817015
354106 829098
812972 67695
449893 857429
777663 687948
716471 290166
249148 863913
509345 847430
121547 506972
259359 828116
223956 159148
856807 57184
778531 814735
998844 812674
859664 632573
997935 861861
469052 438406
177362 396663
612871 822948
796909 770541
77459 305065
75269 751238
304417 71299
488828 780972
175565 670328
316970 272010
190303 296800
205646 912495
960596 931940
367547 671925
87592 491116
225385 724133
808419 456205
56038 937762
51713 560209
809452 428082
748801 778062
119281 164639
873755 413093
363577 938221
855157 186908
674795 752685
872307 865238
607593 716736
615888 275423
855913 672663
732862 14472
149156 223313
51873 908967
338649 93453
869139 455180
570067 936694
722057 85218
662968 221531
482583 798118
116679 879968
12132 514935
652511 332939
724777 594951
964792 699790
10037 303212
880607 417901
760675 759947
24427 44511
540717 775751
492057 499406
985755 193973
450424 129483
300007 280645
684781 769784
544243 290894
235142 42561
917854 361239
826536 707522
193707 110269
134929 983512
236051 683626
959790 356740
480941 321578
862129 368798
885830 490443
756066 577250
589518 12403
543621 246919
714306 102762
710100 183398
537511 644166
805868 677392
903629 919245
776617 217012
14943 580393
65182 759715
601152 803431
922148 458718
261224 673940
347481 14894
508968 283622
159555 595516
539224 1168
261238 682596
892579 409299
657949 525330
175814 54494
104075 943241
314765 330948
326990 193070
136186 850631
346397 433433
808172 631818
65049 756932
688586 694386
214009 250356
222381 370514
937215 22631
278814 492516
980288 632534
246569 762129
93438 352772
744386 425588
261885 691977
41585 674625
409773 640798
758653 426255
679893 306799
725524 857523
451931 694180
158158 144181
712493 975005
60555 868560
898237 291839
857362 654515
582475 587300
762798 26272
153580 215830
936464 72533
96254 176788
942263 221541
522064 813017
125769 484703
816889 788889
129802 695831
73045 358381
568870 788610
371124 205619
385228 404691
52581 821277
200983 93511
736111 329892
339023 692734
171165 287853
205685 978689
983974 717344
489930 401827
358825 612142
560633 31870
900171 256433
908300 205832
80920 758197
718600 626475
494443 973569
356881 205354
232634 504555
122163 690471
541716 280469
167836 168226
119017 312330
644287 516539
435706 648868
900315 607893
914475 809784
124011 64268
353494 843105
817157 536452
184379 947774
656890 359891
611847 995333
422089 949112
247077 754082
234860 967402
271924 858565
569273 235232
640699 509102
813601 952981
588086 515026
871964 974749
625038 809468
345293 185420
156252 482515
275823 699394
901473 196050
491425 690260
50199 183877
640656 147577
842993 574221
167542 700419
214701 835251
476484 570074
534533 561681
371013 319882
332170 387686
386448 600443
431294 830858
693259 148132
297408 499015
166515 849081
129897 457676
155092 380250
413011 462778
298165 737309
880540 685431
526485 724501
665365 497827
162941 951583
631906 127052
759257 945152
295454 1500
803231 574082
663434 524205
793884 387110
668765 336668
951032 178106
135986 528667
500276 93360
584174 2696
252126 183810
806832 715189
191462 408984
444231 641372
653938 738120
711406 832299
796221 609528
846717 449746
715491 748860
309722 498925
987948 229627
7992 993197
984317 532246
610944 124623
148046 231342
127206 667444
377347 786412
567173 875264
806646 923547
33123 224015
702894 522449
510573 222630
652094 313764
331974 437225
250653 987416
802816 279009
674424 525274
470400 461689
783753 51421
459830 854450
511147 736570
434208 468900
290710 111646
296988 802978
864444 321543
842799 587663
372183 768779
35994 719388
632991 641611
953884 548858
997146 747390
764844 392363
782706 449299
535439 546197
917060 354692
274695 746621
20293 703197
315629 285842
109071 917154
780562 908686
170822 238546
140645 867650
944407 253200
976906 966780
4953 309645
260365 256083
992440 346922
599354 260063
451588 615665
46315 59453
541735 280718
24727 119125
274095 687898
651206 597169
636647 713593
699782 196159
596159 991912
426996 33039
748757 831921
460694 853104
399466 743742
639008 20267
394773 70887
877560 881162
871810 465094
75027 391830
470221 846167
498901 122086
329076 67327
40224 328316
523617 947768
936984 207419
233686 18399
24305 346266
160430 708195
598286 575825
47552 371289
543778 679743
58106 753629
280264 800301
168178 347701
944345 822205
84962 160373
505274 688159
229014 698554
192272 249287
315202 873435
966915 355786
566851 756838
830528 719372
673443 324934
154652 87810
690501 568471
121706 337760
605066 897724
230663 218335
469158 88179
366025 695962
915538 728137
261893 953551
629876 855350
102831 493719
637155 29250
961500 480807
562363 189393
271000 2524
529439 49987
949032 228203
426305 814828
507088 148579
775779 863249
164208 828235
34088 390367
113539 829415
723210 352720
773976 304956
868315 497275
174406 454404
62481 996902
183 781416
200093 395985
241256 306582
21404 839345
54459 350899
493913 957466
856617 131396
859699 396796
52809 7652
109483 36967
676596 249832
654340 558742
183953 818692
133058 517496
552660 846852
159758 721366
491687 687535
449263 189603
605183 324358
674687 825278
891058 818183
704236 152951
274768 551867
952738 317005
202895 418010
747591 322007
418107 87195
884454 270716
996106 916182
261995 203179
500700 207545
133974 331362
299088 339289
128682 608897
194991 437249
591038 726235
846915 843144
293387 158284
606388 503722
503036 506683
736318 279551
311469 153686
153240 445100
922498 289094
490946 944078
878108 889052
438578 546270
634489 395904
219358 692102
332665 43200
402431 467821
901709 560159
359161 249671
973386 23936
639888 283370
710004 190644
199800 447048
268553 745634
490883 580527
152994 646968
895820 656444
772977 584357
949422 345020
189579 457741
338551 31169
748195 41945
188085 783760
919082 925091
884252 400473
633846 745838
494284 612684
876568 589008
738105 778539
905244 220080
365351 708818
104427 642312
121875 20268
923603 268535
781522 905198
316124 941582
639618 182743
722298 154473
810198 933616
563243 881618
413626 926791
585862 429469
466436 517526
649089 341526
387256 677383
103230 497649
621240 85975
349063 78364
50306 620225
858122 827687
436837 232175
702596 492364
188390 797225
328185 481997
734564 990851
772808 1750
981862 623172
290944 669928
585905 711431
686855 870245
861706 436147
465530 290741
308847 337251
631295 461912
278913 563533
261039 643100
932518 579424
108187 117101
945551 803022
32200 283999
440884 328574
169087 519396
933683 212931
857321 253775
139001 488367
926583 460373
884734 301132
987901 924412
295106 231172
524600 62900
579123 750275
787689 403515
654326 112320
517070 641143
826717 819219
212491 906353
69248 628147
678540 540209
261395 973824
143324 966153
174371 460795
627772 737798
179786 900642
880619 381006
284252 97582
936108 397296
656172 469244
116388 605399
86881 782035
665066 734665
11173 943475
549479 185838
936764 765838
695473 35233
862370 298249
555593 124723
901365 901285
86141 537926
78229 247941
843953 421103
859229 10314
261820 586052
663476 996050
629943 518521
684434 905589
471824 721486
299425 360924
678062 368109
920534 421046
49889 43724
873035 610469
646532 658256
867794 968786
366380 803662
244777 170255
844178 668603
719422 8790
228792 396067
375990 20315
342046 294513
604100 460145
612539 286433
549840 979966
343032 479589
805622 376832
427039 752768
921095 117680
461553 353423
241841 729951
583646 531303
528301 622354
920427 356137
621572 970550
492247 205549
464722 893953
12624 448750
63015 618766
139966 811860
253698 73785
73744 203585
385611 52719
836626 340274
416338 919400
311335 304113
551670 308992
49483 785146
12391 389847
549982 271562
445130 448148
951408 314496
383180 128990
507566 920567
45161 54290
235668 683873
173987 820194
318342 584109
597104 371415
27350 538426
738391 439223
461132 118956
363752 475753
964576 189560
637406 173354
660607 560518
510437 768461
769966 763959
870711 748970
424513 15693
786176 602559
267021 336200
165555 709503
208426 860574
228784 947189
397847 488409
13475 425423
70154 549641
825107 552911
258904 182141
60701 599075
640073 488446
129498 461368
133577 442481
459561 412182
158037 426895
625605 161870
119652 168566
426417 645712
211803 384223
952595 161239
898139 571411
697513 16563
457497 28298
336212 157953
434510 39657
644495 391698
60768 745401
260197 411006
860589 99183
839005 264055
222264 773420
962660 647030
337598 165425
311645 686363
189046 758956
8394 95159
236783 285574
808474 839349
720727 322258
364984 54007
239583 202397
394600 753330
376150 365129
670748 860272
982080 999386
506340 556005
819213 271101
226691 146030
11243 768642
92090 642570
987059 609026
811154 605479
710344 135784
592707 520574
627121 180879
65273 395649
250258 467871
319232 352260
703732 529403
482286 797897
578658 3347
780504 68241
283082 219348
535835 830150
246381 612978
130976 278033
119478 603618
542672 396837
665622 654764
400416 365783
907294 143692
985872 605808
816996 138509
400772 384144
439196 810840
443427 944195
142141 136465
659589 935614
963979 278874
563899 331608
542196 342313
28114 11776
395994 83312
477901 261509
154805 251623
446541 471923
213426 794874
300019 349401
175022 360716
405398 761242
235908 626945
319137 954817
845731 906955
371602 304179
41872 855437
609842 50573
361444 672057
718380 300111
275304 383487
311489 334745
968388 195181
67908 161467
644535 707064
869106 265572
942680 184350
528427 534373
770287 538492
359372 657491
441297 129402
188248 447310
935142 359972
623143 462068
989840 688308
658803 644909
607078 518597
673422 714277
196725 115275
798747 687877
936504 555233
455256 518435
931808 626957
780085 584999
342278 141130
2508 63628
638492 208392
400097 498506
336321 557165
43128 495862
515186 912169
196106 647765
956250 557310
844615 673286
209833 184012
705389 870498
400670 637597
351135 192636
63545 33664
876577 724145
578784 872038
815150 148799
77254 576636
74902 801063
187948 128377
786108 11228
20846 503709
738060 675517
59023 235037
637791 609880
546068 491330
551676 903619
886523 760167
612668 496758
450440 376930
919121 119950
228924 278123
590826 581308
208746 466627
596874 718202
589208 35342
445412 115167
437889 91060
380407 893721
226022 872260
806572 43668
152126 95059
384570 226179
784885 598515
337924 28941
985449 79389
626884 463487
91744 559931
728893 165428
495592 416438
301574 154157
225894 574912
136717 405306
523330 949482
626404 382925
488727 27358
105200 314493
781406 206945
408561 525400
281064 537358
558905 104365
396772 406403
41374 954124
972607 670332
628434 946711
611849 728584
439152 446079
368079 72545
585165 582269
524733 443096
407707 887426
512329 202583
459437 510101
297656 998947
993782 126043
222602 893313
709436 690873
527552 381825
886114 901150
334652 204616
929932 319775
832795 952541
768462 20431
539711 306683
984443 543937
590012 391005
385456 923405
271776 925213
362706 757969
331278 570400
390887 646246
425477 438924
852177 6073
830182 991449
649819 649645
63092 297714
926185 389377
140508 277496
434328 67844
75753 158629
521662 930511
391145 494466
550438 256504
915043 698823
633884 915421
355554 458053
133722 98082
152739 851809
413720 113263
847883 913087
598425 615197
377168 294163
362099 492556
286411 136663
180342 105906
210976 839977
164696 15367
288891 152268
496284 286015
753949 412173
300962 508757
822471 105549
845063 269789
984733 830076
401243 662463
376840 793885
247791 868084
696620 182364
492708 414851
9110 414867
181803 641353
188888 134644
150204 390218
683461 864754
489799 194398
847283 31615
981950 554556
557730 67744
850003 21535
399901 689015
929321 480429
115325 354878
773298 903974
751642 58977
847350 729721
836929 706290
829276 479797
247130 563317
128784 240975
349148 588516
89543 570883
478919 533412
850799 723883
122492 623759
751463 664725
751241 385547
524539 214874
182131 714677
568636 541936
966851 25181
75455 643280
527937 65549
678596 591218
250444 168501
479709 968447
231822 110064
400609 887843
880065 392529
797064 157112
538522 419173
926225 820338
11113 152005
795564 209813
821275 801106
47923 546485
545422 21446
169236 473553
583857 218433
564813 312355
949132 897764
425791 33418
274105 117823
233230 248798
791597 783223
753652 607996
546830 592542
647142 484444
725298 904617
259876 219473
29241 441581
341803 847191
139156 733992
641258 310668
372257 405647
114143 418981
21482 295223
361762 544048
833538 492820
528456 726835
892524 969237
936628 274392
259916 73799
417715 136276
723502 86857
563089 815064
222060 963927
55330 377161
366395 603925
461120 392431
342505 85364
334938 38936
595982 31233
561141 326144
580674 792559
587877 478520
407693 895619
371179 325954
487537 888619
547331 475908
665509 296731
102125 847023
446314 594471
272682 742870
688267 300664
985729 699634
213416 972269
124950 52457
330671 327071
582344 632967
254433 627665
963238 925673
196835 65725
680081 933009
167860 565657
659635 263541
655895 330230
584112 698209
370181 308496
469085 902613
1276 889312
876735 157011
389853 480626
142721 572475
961804 976387
804407 200506
657590 660398
270825 767816
423702 200095
17354 232880
695832 976307
916673 767198
149192 16179
905056 741956
804177 854230
810780 261045
48074 386650
138175 592395
771528 140365
404243 163804
102996 12763
575011 329656
938461 825907
911529 283458
301619 753708
692187 122078
861903 913314
414097 309780
980183 486720
422773 781562
469025 395212
652206 920717
237960 341670
298795 233117
445714 742516
291672 944430
877484 341368
674825 459987
433100 433617
33586 991288
967797 501404
428360 787027
540230 22891
562621 547880
184278 959166
673831 671372
231822 788614
505374 865727
679303 617092
24452 573880
510722 521366
148196 384358
863821 807905
402766 161206
188647 704593
468791 711037
847853 544452
474668 871907
249400 158962
525201 254605
296488 894158
595845 669199
510157 175253
13052 868158
86416 324529
812135 468176
632101 895965
29040 827790
640018 198346
753056 123439
972243 725020
224164 366226
786192 269635
484374 245113
620460 710622
860873 172861
366547 972772
812895 58980
279711 457542
788160 723446
701704 278378
552633 647717
743288 29821
527332 396700
502551 30585
964403 219705
404733 143297
975865 128047
872893 998389
93353 773734
244960 54606
418388 339396
555510 386703
85587 454349
814813 663994
142201 860213
677288 890730
593240 446231
71339 811437
493033 619705
936462 117345
90291 926753
941011 127995
875531 289485
534691 586421
60836 666935
281232 609789
378715 784247
103714 443449
445899 172685
410195 78470
46019 241780
977220 938692
987452 118256
697330 630785
603670 587267
320227 808
608711 653698
750533 923861
276366 506267
669977 756856
825890 260858
105356 117481
240955 216429
959953 154447
839197 510220
47528 318328
81938 978558
709867 447335
722845 634764
657880 385285
549902 630000
344028 807834
247859 402042
517459 820985
479027 268945
472000 554402
796847 49848
513093 423541
58146 796901
824318 856728
352333 801097
834159 512862
53026 696017
848048 420187
549908 851242
560518 545778
900183 930766
69080 88542
136243 536501
559716 939711
548097 759297
193790 438177
499335 886203
153497 394681
564479 576874
352233 375387
959229 405578
501848 591253
261533 778671
92439 646289
272214 155896
867448 98193
933223 522418
537198 700969
696133 140907
88277 533386
859810 47531
126900 365155
957051 647826
505407 503140
651763 720207
840655 826428
143830 695898
741967 596819
86735 991556
549084 780829
740305 642729
975145 253083
289551 844317
174688 623145
615232 622903
439640 120848
551707 76968
495066 869850
639844 1073
517652 605896
942174 215154
110999 245568
655562 144793
65886 570221
832018 531635
823830 222578
668438 331090
215992 868421
665426 445650
24161 848731
504154 548169
727909 578536
820108 277362
311435 361715
41654 802922
267201 376881
131989 341489
52910 676725
27726 951583
835798 764282
143627 825024
930936 468698
480719 449758
118185 758068
238096 880596
333505 817457
870535 470374
311451 280506
271625 709817
674581 144546
936909 926409
27028 324107
627123 454538
809998 265692
841509 973807
680704 448942
452491 217091
654131 532097
129219 800884
949354 65426
593646 948844
23718 682070
252652 223899
162074 956688
205227 879436
38358 112680
376799 667254
245443 344707
900420 212562
473740 268285
433355 121614
359784 175313
651688 907179
903624 33110
326830 156843
38802 894754
327845 408362
219688 15267
336977 752459
364948 160668
818038 320968
758876 249350
699377 575830
457548 171792
310142 653723
752317 281999
329509 625640
202719 315967
382207 348058
192656 866140
646985 66794
798679 720350
876512 44024
251738 801134
773424 345084
120054 200464
895714 101371
181882 289011
65157 183091
870481 778879
439243 964944
200153 397821
915554 133646
513940 872191
783968 226634
789038 732396
33380 600704
599820 708606
821502 24933
701119 879660
806407 192938
154094 371759
814357 359961
475118 556428
675243 545431
377605 246626
821547 301111
862619 937407
979552 897969
124749 798925
283609 696728
143850 970479
300941 891592
779628 311800
957502 147091
935187 672905
736630 198391
585129 747386
17746 281016
257896 182688
953131 858311
423024 557294
402815 48700
662137 395390
412233 414435
514525 280940
878995 671275
332043 969984
701580 26568
324373 414592
875982 255215
545985 243427
647682 527059
665900 163009
515958 773514
90800 464993
402513 36220
516619 588346
800770 546165
691183 750500
703230 695158
110763 45491
74455 969037
957960 126376
757122 615414
799442 198388
196841 890849
249694 253834
462227 895057
678323 297707
896098 611820
486966 653221
453740 130559
796977 962107
389267 45049
748772 420859
733018 670878
860217 430324
128888 540936
716074 516582
762444 560400
716589 382753
491876 966885
492340 181566
942298 661708
849048 550581
105976 525718
85475 384005
420234 407493
77271 168561
917627 913899
992020 816918
869290 829544
122589 803997
25698 730764
834831 793672
804553 646895
411575 12609
12092 748122
567330 331490
427517 585491
949060 430340
656300 865917
995020 350131
300521 31720
101202 921437
705236 482981
433507 754609
118273 63896
763537 142824
341238 22681
628795 537767
524451 392851
633405 523418
284303 680080
614761 192303
206756 703176
38706 262693
870491 219393
909053 292743
443895 898460
785590 172380
198613 204202
67110 941271
170067 85940
397814 651579
580545 926761
291706 278021
491731 944429
254330 766424
336707 335488
595452 30357
46531 846509
437876 604665
480107 866151
133581 587886
629388 175912
767041 896462
520667 108317
735444 740337
373347 499014
421945 319815
985406 46893
699480 666292
819364 397215
910671 263057
392983 72562
276936 911487
278181 530033
527682 891486
195516 487892
748278 354471
944337 544032
579489 45070
646128 549769
390188 133084
656872 209697
606434 106291
469475 282096
176504 55096
949346 104841
359555 159173
748828 195534
392602 311686
961088 841001
452825 896239
308272 227538
340372 642942
718807 447134
830686 585844
325668 950667
172157 407042
372407 832576
828870 78047
239415 357690
348502 70526
863260 226459
84862 372927
830263 518751
349851 737733
744089 915442
435870 157713
496202 132051
756996 207914
64626 264755
961013 472161
905536 274068
896781 970193
887840 242308
199053 316732
85460 257999
162666 403171
344821 100752
798278 237096
590213 979310
679917 337702
221002 820767
978302 350490
722771 973744
628749 720262
612693 996109
16964 625786
360631 62687
247562 113883
405480 22395
105138 684824
523270 937183
540109 680946
702876 629147
175591 995503
506378 29173
570191 347788
566207 771525
472536 379153
688262 210190
267570 693291
790828 847589
772604 422066
902724 592900
490816 51868
668279 801281
914112 569161
536820 72938
100864 704128
555061 866241
188652 823910
333168 849311
528783 509084
841870 893256
224299 603743
813057 882291
775185 56980
223083 158981
158009 299785
209459 666907
927876 175511
40570 630855
617415 656028
804692 876973
841951 255339
42255 39184
175888 626088
318507 135535
654489 739879
980056 944839
292 187717
118267 747529
134915 765945
979721 534620
659424 968495
604739 732673
345161 424677
617849 323673
379011 290925
690962 980307
126275 276609
251458 982141
163680 979932
700010 684803
976145 877714
128396 228666
498776 703846
568711 245974
623890 91867
544752 589088
780194 987385
38045 693509
149465 465448
682413 413236
550565 774058
329916 21807
63140 449376
722710 820107
584114 629013
240040 836939
758966 457312
716766 563636
92655 219831
33071 150858
501498 524915
922765 215495
750063 898410
992751 154758
79402 427823
492110 435231
452968 554605
793298 109871
674828 944007
371104 944563
693190 932049
705774 568100
299844 424878
195363 975368
131008 608855
287570 127382
929161 285415
19990 268784
813382 556434
282604 205132
487024 274
398450 872984
609733 6844
527208 205391
834313 563189
327924 738731
404566 930384
156883 270725
54941 790102
440686 694830
777681 593481
177744 809390
344634 105201
525096 615982
659664 808677
81576 694143
757812 516530
357463 434364
423319 218457
748516 500633
692011 12031
635263 911857
598552 911275
564437 8640
7725 394843
245207 563351
326044 246855
709451 45468
328877 123768
247608 914365
635271 921559
315907 901939
459567 474746
929726 596143
556608 592379
172593 312939
687875 25497
600011 994824
437583 429227
691920 359802
566523 110889
933591 205111
420430 57919
844850 747194
66921 904121
94294 923225
828643 433479
666460 282537
149950 109386
102432 490081
74607 542795
488190 770311
900216 441458
985265 334674
129416 800406
631874 13165
532360 252234
84797 577271
39931 387811
488166 562933
361536 679799
641393 354788
34697 169210
38106 314343
706985 779569
196949 500238
391115 818350
382246 714461
447650 562972
313654 827205
229343 293118
85247 98743
307670 220644
611977 613573
836399 521233
28881 338669
403851 801027
925583 493461
671287 974338
580474 757562
170785 410463
213930 308166
859990 929952
496343 779853
113432 321170
172955 941645
250268 908874
919629 752549
816731 763063
259924 899774
996567 279898
476445 236753
773207 793420
910633 308237
397172 588052
986971 997022
685613 602548
913113 99453
314415 390089
719032 276693
878449 176151
509836 776521
35759 39629
154509 16723
595992 721499
275190 355517
99094 870991
404417 287242
737993 206645
251871 415418
225438 778546
135894 625840
531564 672369
123736 929186
592005 100771
555693 318977
866867 730628
595591 90759
827048 640740
898994 990047
181625 5433
804963 973208
249825 625517
117981 707394
308780 738349
788423 267898
412913 446100
459616 141335
117858 511066
758034 511612
124666 484604
401585 916193
29206 955911
293254 47368
302339 729284
686506 197467
468268 774632
211531 430622
679694 877602
690916 249068
684788 825082
651927 789351
999664 657564
115226 771447
422003 990527
413951 637355
176445 384563
641226 583281
296619 70500
380401 126247
252141 281120
943623 231561
671881 480773
281795 700359
320278 69369
584751 626401
335746 658263
711123 254760
254398 536223
964114 64679
952768 930409
413427 957255
917938 342396
666409 47735
46880 584261
444819 340454
105660 117794
637436 236941
502113 419329
846963 69612
61885 101046
62891 232698
876939 32470
961819 314458
810937 131334
140837 253988
584288 336849
668827 260336
939324 698198
408286 311969
782641 261694
817246 526730
142098 801148
724346 910375
258535 83972
194582 952086
902965 556743
119054 658209
820809 354957
905814 105703
408939 12947
944330 301604
500717 360935
550908 624738
452969 834827
865567 353959
870275 828055
64033 341613
21168 170004
816475 762091
175436 727869
826535 353328
931883 409552
659791 729443
635167 664269
118493 278187
476428 296788
857278 751962
752519 399039
803503 542680
721526 32941
768384 862503
118280 544588
775883 495264
240469 536562
228833 608740
351920 303580
783145 655827
572442 17554
990119 589635
701323 849404
33580 127292
598561 491274
316344 778060
344515 855952
379343 558427
794826 93405
420678 815819
411690 845513
148850 665165
431697 632990
197392 873282
336193 358277
771737 6129
313404 340187
713122 526224
678115 602769
296620 771252
493346 113491
402666 328594
382042 889018
606796 331425
188069 714129
825884 73656
732826 46416
249536 838324
481791 164369
327179 211162
205878 429551
172303 774976
78727 850100
452430 823607
689159 117191
74861 554977
392859 865730
33032 406091
61654 52308
519025 610954
577856 317826
792874 384738
562261 1302
68039 659259
127313 901931
522311 665041
705235 898878
945700 847362
172706 434875
383382 806021
154853 431046
127142 381831
222448 395130
192757 621394
844664 40043
471777 807254
210730 205642
830057 891147
661675 940211
977653 279647
791353 912126
411014 553013
854150 405154
822108 465108
358142 390981
870554 677865
578123 638265
47422 387204
981370 926142
261003 633707
222484 640466
106161 225152
818223 335913
431665 770275
974638 136962
28534 400865
623294 837441
867068 843027
253551 412752
55991 606435
895840 17296
449894 6448
804526 534882
217197 380680
937283 471188
447584 529984
769849 926868
29052 702690
643726 84870
317523 40383
706845 413974
297655 674399
940931 904112
555456 265540
767597 921554
778492 998826
624479 159758
11325 872960
311908 290756
512217 636386
974875 775528
674563 596252
123252 291018
444118 36050
356598 679854
295898 399791
985936 390112
769725 437891
125111 91054
27156 338080
333521 296400
805754 504232
695121 727238
432375 112283
569860 880437
969131 782908
221255 210513
539838 478044
871926 214395
706867 155534
160843 384338
377056 278168
636462 485699
377581 337033
901265 611994
230729 263387
817652 503157
376581 983003
433462 430127
235228 656781
609405 424642
266350 872797
382928 755298
101529 935165
979267 805810
90918 403153
698155 64182
371339 474626
545293 390773
66194 727488
530447 192134
862326 857349
786684 745066
866271 868287
315467 515275
295952 850506
975357 26674
133092 218010
897607 16331
655276 599490
1509 529119
640848 320674
946945 214889
214994 103008
632197 797258
833962 944201
989859 712428
915842 189040
502077 168218
362573 845217
34839 953665
59968 891759
958325 492333
128818 790988
881840 250339
386291 828470
469854 158282
192794 335009
506149 190814
312376 329352
958944 682314
986983 265356
493395 678540
542032 982578
423700 638173
462267 49329
4668 761756
149350 860562
696214 588243
210068 701413
784279 372293
732504 734793
813439 299185
538684 549429
562067 565254
455562 108402
448223 511704
971517 600894
286156 257396
140390 508594
639218 432420
661731 690312
3535 584205
162861 227102
813775 394571
692395 398588
674828 585166
775245 593197
249446 891765
725230 264431
397473 342287
866431 240833
34345 366791
690527 173116
616168 706226
543082 861805
749282 197370
463151 128955
185862 558386
818180 470344
822789 762123
300550 534022
831439 926756
851197 219843
900229 327843
993276 913186
858975 538179
786177 950469
383649 961052
143627 96367
130634 784139
43514 812101
757730 635582
563360 592827
418103 408018
515981 575139
975578 827625
298411 453421
239118 503139
337694 474581
952357 431001
236100 725606
182964 794661
514675 807387
527831 199339
726856 491399
133736 282383
391106 877006
721174 745821
343988 955891
452203 200378
764920 366051
703799 264215
391318 50802
892929 788508
33477 95120
203171 960648
503354 900347
196369 464806
602915 640415
907013 709890
742167 345257
214910 165223
199811 792984
398452 622749
162358 119597
506584 770763
691231 845604
459552 657079
74556 61033
628836 447073
569547 710931
570300 879727
896055 628189
471835 544917
841561 930789
712442 53105
808839 292515
409389 644581
735760 421425
846369 842445
888501 896273
948701 761833
548604 523841
273764 716639
862379 850478
737489 762984
819686 734571
817009 957422
855765 956
416208 529985
531218 388518
830497 199976
895953 427649
738323 34389
821285 258833
306105 800019
408168 589326
48571 160435
822613 829015
377060 94262
493566 208947
752177 886064
732195 667958
644681 229161
375526 129891
174027 948708
720961 739904
734361 814218
350655 305213
724524 961536
996390 656192
931896 130925
149225 575658
281515 946350
194005 890735
755344 711022
140915 637920
522077 823667
688257 869151
183599 382267
593619 551559
918532 98120
815481 501993
453015 740017
745090 765976
7219 432045
447120 87997
783130 120230
518448 806251
718940 828933
390465 296265
816996 87751
515919 923387
113596 376155
82072 453410
570420 514085
807663 497073
987195 721668
706608 96070
74929 426962
255003 885984
127282 83546
414285 338780
752038 541639
105444 495161
830603 831204
24409 181188
171951 719310
452799 510330
315879 486511
560794 290708
934205 946638
904655 983106
336804 64319
570063 702679
673488 698831
180290 752401
762821 557179
906541 642239
321067 612881
773767 558477
588905 465449
300574 147957
521531 818480
697220 352000
267336 866322
654232 218362
980940 665876
31131 863613
304271 92055
597976 150490
158173 56869
693371 882061
890438 671929
139580 875765
455306 668319
299873 619626
686079 830793
824960 376882
310619 82240
854470 203826
169093 436060
634774 397428
458995 375831
2244 521705
469469 652189
341964 198616
778577 102795
555166 668449
158021 716368
369118 86937
361164 175577
130575 627973
86090 501202
479470 471634
530857 349560
234842 502535
372317 726715
482717 152339
866719 27621
312679 498487
699323 600450
763645 105001
215342 374343
939358 85129
750288 148782
549779 847139
247265 771999
27161 313900
230169 836928
218101 727692
326166 816226
799891 496422
687633 662985
45104 894895
206404 446219
941497 987080
285620 881461
61890 934682
658663 477950
693555 469457
627398 326621
84671 965865
323719 403441
656221 548799
184517 792297
268795 326517
658048 551582
539410 872970
788938 904595
888368 940980
661563 944758
915171 226208
383059 109845
764847 970784
680085 916982
1317 238436
270249 955169
221914 789661
255699 527065
414182 858545
554308 510014
994761 719432
595413 373388
388402 245683
66990 394982
585477 284313
726430 239679
716540 833387
247604 841510
139559 845985
726015 446522
903279 232780
365732 884718
91476 922394
862563 666345
756425 629907
930191 802696
804656 407678
706935 783297
379095 395030
221624 481967
308161 479313
407426 451449
115028 567764
87356 598448
815261 677782
902727 276001
720880 696259
783393 532589
558331 188012
495456 316918
883936 323421
76700 973160
846479 803427
118163 533885
122362 878936
540281 191945
399795 684616
738245 640978
442724 413056
375551 117788
554307 24566
383428 431237
564628 953676
209351 399311
639349 103307
852324 61453
174091 315651
196214 64433
957771 806649
490976 624547
164329 115428
409076 283671
381290 234637
138954 529009
840527 835281
41695 373894
805495 701043
149107 218047
355039 813615
420177 497761
714801 325005
925583 38275
944406 675478
585751 295083
836891 124909
399864 353394
744721 330253
748368 409094
761270 122916
240740 919821
955538 484698
206255 469610
948550 287188
863757 461456
9076 82594
870526 584431
752718 534715
903601 308146
143000 574050
731766 530144
467637 713373
489613 738570
512131 116381
797004 255861
39472 32014
327379 502321
403371 87147
827938 755294
71921 70884
871564 525626
884847 772678
896226 823111
827213 608418
284713 722579
549546 117941
916766 902756
140164 668882
527079 360964
621290 56456
354421 380249
102555 232770
953805 192637
593687 658098
758791 735375
775917 597010
123923 962943
601057 233543
950752 192997
163008 362191
351099 936310
742069 641466
772537 916096
204108 113822
898764 317995
720044 144761
218738 113677
149296 463835
233544 989952
716316 592444
412593 569225
837135 682190
914219 870759
627340 906091
724204 315052
178389 230465
596756 355343
52643 521972
663814 432965
865737 415055
955703 648633
269258 482683
676115 349054
376581 253186
458410 547023
313847 724147
117545 434477
68268 168873
118472 180946
320205 198561
220627 522044
630394 827247
982984 579141
16808 275479
139050 315849
784399 460870
522256 669874
447164 55666
643572 206745
352199 784302
733821 192453
363788 151482
945459 76286
507402 227378
438234 202765
706181 935910
742077 907029
152207 729393
794192 235299
351753 328568
624561 161900
289297 711316
733246 591587
719675 818598
813642 905486
807570 65383
395276 131304
538559 767264
630116 656319
954630 399166
897964 48411
139342 338024
796554 563895
371925 617561
280114 239894
236035 622581
779978 951609
442009 643485
75404 955408
647944 260291
31338 506925
718592 936657
91484 297944
73041 667907
98333 355160
903862 67712
731935 781052
300471 282200
796208 36006
499869 449511
765462 362765
822035 32312
46577 900973
183094 391177
176738 178398
668940 767470
117725 970550
559349 38744
299130 829710
842785 293099
361667 610794
517844 24043
287471 797157
998374 106043
90631 8616
383509 751087
200690 448111
314598 114832
426822 509687
720757 474246
563701 693166
758936 206168
484242 870936
259023 179941
557725 324277
4407 331175
810969 41246
567563 711661
488868 653645
311250 375518
584902 633317
543018 681622
501150 100997
144964 643673
417432 628116
401180 721342
167618 103367
416829 822501
765975 980736
559278 673693
597345 894316
836360 248961
34780 756806
581630 813296
111055 164189
930921 826050
890526 9421
305348 380384
836371 240156
859300 700221
845106 819873
465439 305675
125446 635492
165916 712796
632014 690087
524507 211406
30282 277299
359457 175165
266515 847525
915782 250531
237501 643566
473453 511729
724082 170740
529605 839519
284219 677157
528266 3831
321307 596691
381143 50183
165014 750136
180818 437669
831820 396713
918080 798657
662701 191609
740662 709466
517835 579634
582504 1013
245078 695537
599191 431602
934198 846736
311672 733248
686990 663673
249735 91483
266754 611765
302462 299079
126691 51102
49548 616576
788463 44661
270520 108186
99132 415324
299642 865103
408827 719183
181940 410815
35127 60456
293922 160275
806102 229472
360241 348544
977528 292432
914794 489019
913377 390721
705517 352771
694823 367295
431048 818613
533763 712211
234794 960137
146778 418067
350421 747871
880180 555180
331410 641313
573747 563242
17834 947443
345650 833000
156513 202462
151651 235394
82627 734642
84299 147658
976239 704277
129771 463500
391412 639351
462717 553504
307235 137053
11145 995891
949144 80905
437273 801763
778516 234162
192287 739230
880988 890971
437490 438576
833178 142587
559909 35974
265624 408662
60272 508872
535067 834176
172946 64676
185944 129528
39251 762543
155536 93447
193732 64753
849303 347488
949626 169319
882390 473081
252729 990068
433735 814674
255857 480818
307297 728487
661558 230191
811205 790145
421613 552529
834651 959014
546919 737510
946348 192109
657906 209819
369088 669980
46727 187137
918270 868782
666464 973120
335716 261064
980344 561960
35653 816426
100936 627243
393664 459225
778 312209
546158 364924
43857 35467
732180 468512
754572 192732
853591 839974
3478 454119
779183 849320
195099 119261
810025 873965
242593 539006
981504 757063
851369 955481
900920 210773
163109 427735
301891 78005
466991 558147
603886 411581
473690 530445
827884 921388
737341 784035
627536 534926
992471 73017
815181 137798
713070 121079
79197 981419
331411 113949
603289 142563
881561 832186
120572 911986
892304 907524
332753 447224
933222 146577
525747 636769
783396 247084
477478 295528
462426 138484
251091 907227
849365 179028
69633 867941
336490 926080
666345 743869
708732 417474
926019 78356
944757 759940
911400 296987
226459 849465
263449 878665
729824 688861
176953 827279
281560 15208
22578 788107
395113 86611
783476 633635
799060 899377
787451 185851
142573 779775
133731 127928
685838 508409
22705 363421
415695 307954
971965 681668
717781 276407
790253 161675
657671 292724
186348 903019
344456 420777
394023 233294
314453 601442
960686 756857
339394 853276
11468 35253
612827 538429
163474 242191
916241 397417
555623 166847
92570 434294
748577 109984
237689 376968
820563 679998
864723 561627
697203 237774
783346 300449
51980 832389
786749 740924
750156 144561
446198 748797
588208 849180
934067 647185
336181 215116
942238 334367
242997 893825
260437 450057
31502 677785
218793 793841
813220 763746
982368 346927
676621 186211
995791 314677
44390 843563
236464 197869
83841 617603
206222 191335
676389 594951
878138 907864
163255 654613
112015 404903
593030 516582
464719 111924
335914 633314
547377 539626
846413 482376
743152 48701
16869 944303
915986 108581
664138 418806
581611 497399
521176 452040
430908 561490
199340 826337
23382 577128
914267 429405
594367 829623
458615 87923
863456 309867
703802 979162
684278 447546
782923 453779
421871 754089
836443 654058
441370 489157
786335 519092
471389 356691
787048 921598
193214 679480
251106 764119
615682 654131
258 986312
948005 39442
863984 270581
185808 312042
505283 151077
539771 617653
617183 721766
637699 60809
313617 886821
631084 225987
462288 227232
368695 151188
890773 607197
756381 255023
962863 648411
97615 661641
536468 257074
730630 525030
571150 539934
740983 976578
623188 805988
502818 587986
868167 813475
147259 26472
645701 267365
569504 331204
45616 872839
85730 777055
524285 757902
406991 997465
132687 490
525330 695355
584383 264653
323096 154276
226689 966807
365610 792058
762023 958212
969069 617230
856924 25414
706530 391637
204283 309086
154921 35729
715099 232553
658683 74529
219913 361781
74379 667037
477424 899363
73121 978895
432033 302974
46808 336164
27519 908019
139345 103827
906713 552354
581883 447046
459969 855618
664478 158901
898451 492840
220867 860057
704996 297134
7957 855101
998899 459145
424018 28393
31062 67747
16631 578642
356685 124177
549923 712015
217890 134353
225165 247391
853588 334305
685100 378149
565685 128052
693653 156672
877819 533586
925959 110973
949883 257983
395885 921037
380069 952523
355552 897858
648591 605666
205110 845201
879870 6575
285735 903383
808790 310906
139228 259694
834355 152973
496679 659711
113535 961629
452063 81142
854539 719939
777160 468232
657064 767445
3368 605515
627666 278189
637983 531015
141224 981773
998128 839110
801813 489340
875703 176919
495098 805351
457924 39214
459846 180670
740080 280752
12460 23758
346437 891978
8712 805983
61906 17298
89905 793843
155616 737236
220554 909412
8530 665661
512684 521261
792117 146591
314481 395624
740602 807288
798664 632999
307390 955266
30917 856193
663270 317205
844345 155590
380494 11396
211960 59073
948313 357677
391000 369406
731182 835460
737078 187762
805328 506281
591789 76906
911674 421504
244145 484252
104918 588134
164380 369765
843760 25754
740839 617215
288893 452201
123569 310179
490644 60905
740135 283346
605940 611583
261378 929098
474278 292961
664767 138596
465133 595478
473257 150204
794173 592638
864277 554864
198994 66904
444707 199747
251111 303780
389175 849844
205351 777646
413873 270526
537263 69336
52147 765544
558355 384528
503485 320412
466026 380073
191508 724985
374221 385819
621534 567755
675836 504839
559573 293783
409926 450142
108491 839550
511716 221123
219698 545624
402978 338466
43239 500745
821605 369744
710944 946151
953805 678402
419089 754151
882243 247219
768575 101238
588924 373277
534756 393063
255266 780680
75969 24991
607413 143829
99187 179500
705343 566561
945483 634373
664501 980477
812844 7369
43040 757511
656473 651716
633263 192365
260434 394841
720218 210192
898571 10933
771776 940111
460591 116657
119720 464277
121187 146784
654408 501686
794220 247988
894660 572619
575854 231723
971397 571939
154898 545768
408751 229468
322713 147447
206305 996000
386311 613062
525726 789134
74987 89589
738898 355586
728216 765048
867112 744138
287443 243226
666508 912041
518468 656815
908278 808865
866161 580229
28818 544445
420427 468707
248881 850464
282133 934471
860955 749970
866251 146843
214883 934679
785791 794306
593669 299602
150146 283340
80403 857781
648255 93023
565150 369125
837661 454818
745418 252388
936953 995424
701539 334487
842871 179201
929796 66231
925596 609324
22107 359697
486842 118425
964960 596981
243427 213115
290678 282519
629635 701489
93212 249135
398897 762017
308232 702248
925603 394703
940732 413454
183847 2476
666651 67481
511277 84474
698837 186613
957690 287800
843017 941305
653588 362928
93398 293461
110283 730839
146338 467263
165632 180956
729881 456410
487164 597245
811074 625793
706585 671397
740722 592684
346251 442405
64939 496970
533163 13104
188934 652816
514673 686129
128460 87621
898729 835331
281008 66256
553527 24723
763055 985169
533521 1057
329466 744420
762327 594843
997259 49450
386638 717707
679158 952735
179305 171507
193725 288347
395914 408761
942582 625665
362867 902271
365457 964637
916719 921449
219336 430832
945394 198195
293369 921369
511693 94395
264020 334383
697330 929056
157204 23079
772173 14478
170868 953184
634671 738754
236726 877009
897430 637896
494193 711724
524799 49289
274924 919900
868161 68931
758504 871405
328536 153114
822235 811884
613832 266555
505634 194278
165573 898034
568811 947045
228493 255981
180181 221768
640012 158253
290888 721253
504127 940989
565485 986411
205202 320227
343209 819232
175494 252232
592383 187967
864088 293326
735270 362943
845595 144312
763236 522962
245519 238492
573610 74575
135993 846686
637734 136950
30729 754634
211396 810969
530158 335423
906311 810408
805243 47933
260022 266712
830675 673333
173942 691645
972150 603363
754598 569941
464743 212575
603062 29222
184794 655647
959700 334228
733964 145270
658439 571786
36171 286862
984442 981718
696507 278032
533232 9453
255027 670856
534855 658793
362160 472561
100693 868148
124079 870105
909470 823131
357256 358310
256706 846150
990529 549616
98229 760399
526398 799759
776101 409735
245918 9127
608120 236635
281648 427357
335010 302044
886267 276392
969327 687670
964354 625539
636181 755326
652040 507546
468942 642743
148503 475957
452429 86425
564710 230185
777160 350001
989643 445801
618175 154314
387802 102593
785578 754611
475987 242855
713334 331128
459636 458354
520998 8546
345096 985714
959900 389648
678242 721440
985919 443797
508774 416700
68509 180645
106237 19559
219520 814609
182554 993464
984307 526643
496692 213984
832280 81093
992278 955391
950477 372980
683614 892983
107672 767789
236327 117192
641803 551121
8662 925985
21922 14528
213067 103021
465696 172506
867598 189225
732149 948294
57008 572916
490114 318309
971707 332393
240950 698952
758325 779372
996829 493509
10832 997595
833130 166473
162120 454127
250933 180136
925902 286048
721878 935880
883048 315768
716459 462245
977041 59952
902604 897602
988288 783219
835628 594532
933128 772397
831510 146691
551673 10223
242574 551570
93637 580762
548759 783296
492221 890266
593638 919731
916358 430053
451072 486185
787133 693081
458596 647559
149938 994929
342608 50944
742958 776255
759554 904493
166327 342127
644275 97002
240514 297626
359918 904520
471983 671515
303463 486655
777543 290634
453111 865572
666519 112974
41763 652804
77666 701974
356876 574331
487329 761265
950391 481643
661279 186781
247497 670266
866053 992110
190939 294474
286924 490223
356520 234219
104251 86275
912187 503004
617524 793339
779575 916837
749523 849389
85927 213235
573092 830896
78581 451622
231002 935001
428888 161658
256104 518430
860618 942103
380157 654372
575504 142535
950933 85198
28298 616
656594 243932
462383 580995
588839 51667
576566 408291
808226 808691
277778 78317
627080 668038
859048 246411
741461 360715
970351 111573
366082 989943
992335 493443
298191 408949
409889 669597
201572 210265
637106 140049
364080 472470
460146 411955
438426 512616
268649 735930
205759 758291
335743 225584
465326 248960
905304 283668
617706 909124
213589 174062
281089 133347
705501 100777
366038 897190
258098 959946
477053 75008
531750 924191
223522 282700
828578 166683
491518 262656
43269 932641
904511 672695
246499 749601
860491 706410
569020 297350
118672 111206
826766 219307
232167 874737
893816 638687
465548 901182
491604 766823
390269 565973
837517 575660
464016 234165
357374 349575
332559 714398
681229 514000
228912 536916
701590 196478
702956 316771
962494 155478
90730 433715
578609 810585
133084 65636
462634 59592
338969 94367
43562 306366
14831 998739
733219 581533
730457 560673
469242 844398
219580 820497
893593 730141
395810 295046
801872 104184
356961 447115
494438 557955
189509 975996
618167 89448
187242 123685
769639 841762
560233 237522
359596 706429
840270 526384
264541 690308
42664 217743
613387 680309
128739 217633
311758 445326
938957 882995
558606 741050
297094 614976
915572 236773
201266 464623
141376 279035
62638 624791
967050 692038
703277 394589
460945 138893
422811 108938
978840 384254
301524 927823
630876 171506
857217 54482
779455 262726
710266 402470
865859 990730
415020 176209
433650 94124
63596 810611
655823 894751
403197 871017
919873 6851
791853 28502
945154 278858
689382 796364
738615 632241
574041 698900
10230 691084
29328 438902
925695 419600
659040 10901
861832 179233
176228 921688
106080 820417
317260 245025
358565 936236
668995 744690
950421 649356
140603 759562
112211 392892
887688 856275
109697 992786
40644 903743
282652 238064
367672 74935
885643 590396
890082 860144
948980 116477
26410 959175
707904 897007
765471 994450
476726 578021
561557 518220
504323 428302
662318 297915
92905 41116
850612 730891
361315 620487
204344 822298
935671 567111
130491 660425
388582 582749
633063 934439
55512 724694
374349 454204
222703 363817
951000 881543
415242 778500
627801 748071
530462 95386
871157 997920
316280 831752
876394 611216
878082 827579
159496 561217
289933 530829
102423 915042
85874 222011
338979 643485
372019 825688
300912 693870
131020 731177
400206 836910
822814 38697
934629 701050
164220 252135
405652 224289
496940 60329
436568 615086
305061 218596
983961 516016
816555 60288
669245 703586
271924 556361
183979 633882
967429 132859
203269 834817
79490 856310
20243 765875
288466 703029
298640 791508
454222 523210
28583 498166
80242 906172
592914 744841
835200 212707
827334 745174
933769 296414
878542 648785
421199 989409
389996 139467
695058 248542
172403 190644
543194 328191
154459 815897
116068 417080
608942 855419
378653 556960
91203 748748
979318 586136
364942 500715
920873 941567
138811 202694
248680 315786
644903 903724
888709 588634
752353 504397
165339 951222
729375 175672
927500 361111
991987 159895
801636 667710
423420 926307
956546 932850
875283 86733
781316 34818
742619 411339
365248 800324
499858 989865
572753 559454
502870 140865
979886 805507
876986 433395
177610 104755
819871 147154
634564 916974
623097 292811
517344 420332
632355 854714
707078 551046
803869 181503
697176 740449
93126 194927
705810 500421
784910 791786
527641 561567
425299 264204
65999 938315
726945 34292
710412 738597
346963 652276
663310 322260
45007 343385
625383 617177
106635 969534
253697 98445
419548 681686
724242 519999
885392 257950
864180 429430
193976 23523
352590 116262
804848 164065
764808 951000
223702 621800
583492 877476
460508 371292
357874 617775
249029 667477
392638 119571
563849 68391
944970 845671
473902 170047
957085 844563
364131 788168
24452 999554
574969 616857
305609 14047
695322 223496
705268 97080
315622 10259
871241 679982
12886 519913
753085 525154
655202 635768
198152 616966
683393 768466
101771 741337
823338 567992
379905 135295
397664 500540
341205 509256
806293 267448
953376 145001
865387 807351
832886 594711
917802 989225
219265 114827
93490 19087
926264 83829
615826 443678
751732 740629
445916 141515
624899 629416
960311 803671
989953 80627
655964 369189
407199 516547
143094 156048
983010 56321
38819 737306
131873 474577
579511 791731
958635 696109
451229 608753
722055 586667
403329 960956
58420 326288
345645 518891
781043 625568
357607 276634
327496 996964
11050 424933
206108 274640
293312 133473
311743 828856
773353 895283
561832 504970
17118 704547
399306 293543
890775 863397
684226 578307
217449 232078
229060 623280
198669 492455
151721 447970
20937 924648
496770 908530
821341 760317
535487 498073
370955 47449
522104 806059
547194 435126
502002 377257
835386 650913
484552 520116
668993 983972
537448 785838
33735 236795
211485 305744
629380 971197
153352 809364
724315 51234
803144 426670
958977 790580
135631 743024
318028 307899
649276 250470
566965 457766
754423 544027
129786 304362
238721 496777
777528 864070
756550 173742
55055 460813
800642 202395
228994 664341
257631 923907
669213 239169
699411 412316
882099 773904
121716 533226
997120 448711
384353 833936
334379 562349
815720 874214
959751 356018
281063 438395
187007 868954
680900 2971
67680 385865
786229 845164
340154 926123
588013 374978
804279 867894
864869 294872
639847 413070
429568 167814
507364 574523
284942 3559
377633 10361
811397 314995
159517 788888
317153 306318
977438 14676
609876 293346
113670 863180
617044 955202
689565 849589
592843 749393
549354 73242
507947 771797
352748 566176
958412 883253
47807 960304
764139 930220
709286 109037
166459 126090
97668 644467
929985 924541
639388 182069
959029 118708
268927 55012
434605 129085
437164 360782
89701 994932
956854 828381
993359 969891
214416 563290
684350 820596
287536 481538
16518 358230
129321 865668
799104 431690
932831 23898
796605 637980
692628 844523
725573 318735
617698 592993
985788 794069
491496 502801
118176 599787
538633 918159
255493 721860
263618 833362
873572 319482
589608 937805
424211 270424
933926 824351
131338 737451
413750 494694
644535 857297
848265 983472
563902 510756
164425 545305
415654 943410
454537 565229
744709 464242
960432 132140
536086 739236
97429 801553
998821 496858
170953 666440
10193 943826
280647 773215
739961 775489
188489 921801
285512 479530
138314 495135
63754 391680
288829 608055
900032 559773
512195 453129
733925 647554
886042 377705
222598 712878
447459 43973
138844 676005
980402 993527
402164 520318
146338 941937
304136 701483
943335 878959
156677 331675
972174 32455
49228 655603
760760 744431
130372 378000
746534 107177
709122 764304
128088 170227
746161 497437
708072 666008
158679 955288
117360 817577
265726 441286
876917 629162
611038 725394
217644 601965
739137 817083
957028 537450
605901 683078
449430 743177
629856 895419
922462 974316
526758 205341
559666 989194
728715 913587
561164 849434
744358 353342
561333 455054
224635 522007
109253 429211
46100 852369
460449 561024
236203 556488
380351 452338
518133 185120
473028 558858
658927 616786
935766 388093
4736 930057
996362 90862
636964 331201
285518 421700
950351 952647
256316 242083
159208 971593
431095 449913
751892 565485
602917 266605
593296 869639
309055 501087
597660 426562
105090 870835
137972 756875
795700 717165
870759 252409
776753 365885
802210 126152
234999 932088
330463 93785
221116 805930
465632 252249
543929 869058
886987 473864
548713 846602
907288 23694
657115 316634
231295 598606
216851 834110
457471 301039
919856 170755
640548 485080
300972 622313
458240 591188
128296 461300
271312 962906
25475 918029
41477 931616
34680 557403
293143 629876
732674 787449
742543 134623
549769 960170
71147 756060
148602 808144
295329 324300
537834 624245
97762 525821
285856 944235
785342 170645
169437 185858
104023 278740
105490 891120
266946 894103
450956 985339
322149 1945
445208 934208
351877 980804
868733 447545
901682 532030
639892 608426
837907 747818
97727 368003
417970 929232
350448 904702
809489 947238
12786 810866
763298 943597
314137 106997
675950 985169
614264 430542
63612 671498
67478 76795
618885 499678
719084 553001
337398 739015
245121 594940
371374 32397
817607 627934
580087 264754
793151 279697
97577 895977
775500 69379
447626 474118
840145 200528
273678 108166
40995 691569
243022 568977
75211 804713
701508 977717
38684 675451
233344 540030
855490 191181
856131 741992
340049 558351
469309 784906
472052 22092
459814 151635
914864 55071
993189 958148
764250 3664
924763 687352
499342 600986
63234 925352
848790 676111
288131 836815
54403 585181
107372 270781
689782 999705
304680 711609
646001 662914
964457 490357
511705 122594
261592 203448
278045 693003
481482 739404
94130 887149
95258 149494
703352 741968
479175 534345
964384 500432
543041 900970
878068 858724
48494 799121
455123 205320
423453 722099
517271 664601
887392 926350
295414 760277
431929 838725
672351 338423
122380 774520
951271 85684
408755 346241
353864 261352
513678 557521
554918 230455
419920 799238
325976 173868
92729 209924
651528 506769
282731 25519
65793 646218
884539 385254
256308 251130
80900 435365
62305 362580
375479 946802
320699 184927
233416 603848
58468 11743
700783 327743
4104 121970
211130 844538
806723 483450
401470 663170
468857 21920
598470 333237
547082 371461
240656 233145
593401 544812
649975 872538
777467 789368
950489 62847
4080 699734
121799 432865
114758 294955
537022 187528
144456 523397
101882 892468
271786 150556
111326 379807
392177 840392
384290 829389
131659 664971
398647 869552
522924 981583
14894 291516
313680 48325
237651 426795
173462 844216
567662 250887
523661 719325
984683 779414
386179 402260
85231 942382
402737 588880
432994 537577
403870 317565
39175 631469
74182 147003
375096 356876
258471 366066
971865 834793
571390 127373
793598 681003
960302 885350
793682 788508
647821 627664
158243 986632
241422 619669
627769 340228
308070 211177
735120 694931
772652 579166
117212 769043
712343 903096
595477 601809
203086 582362
334765 305313
643043 915091
54355 173729
787324 638531
854564 370413
445341 287730
934224 250524
967314 515111
169379 43282
933892 607786
16092 575396
419131 798034
249663 721176
647238 158312
527051 514073
892887 71701
351217 946197
168956 832612
9704 375070
416502 697302
519372 410778
789987 926183
272962 406650
259352 917400
515352 629344
465145 41640
517896 526488
752215 901668
89989 549887
722233 926274
487887 673796
975778 307376
139815 288717
520372 236764
416572 442201
167727 280886
741179 391169
869026 377610
369805 327115
513476 21075
743364 988028
367149 972930
342551 868032
351235 450274
221792 912121
869523 140203
960480 7796
215778 739664
920728 316226
271331 574658
148941 606161
884862 239987
208719 874891
494063 777327
809499 710769
850020 267007
669174 627290
17244 141628
713660 474087
908224 691031
47742 146773
374962 113545
589246 553528
428985 494188
798809 396466
711382 311154
626451 446705
263161 380064
339765 919326
477576 391176
574401 167176
625305 45561
916043 636636
371239 527768
257533 307535
67540 197430
446325 287879
455178 181484
505082 835949
241736 746253
46880 362062
800512 794546
211328 479659
870700 883007
48853 247210
470025 654399
833759 411206
613005 127470
828207 657922
354587 456048
298424 686590
59913 673417
336381 412397
144677 901935
356839 658639
418897 328340
345196 654477
231399 17691
947875 637685
665347 257412
701292 505445
99042 156025
13999 372637
890408 416201
845169 715940
316660 177218
274847 82127
585080 323183
284926 396377
430677 428803
811005 225499
526937 3517
198432 985836
435524 111955
509855 348664
720173 266011
851318 242387
367723 360284
61199 407711
342109 905465
933030 207040
827970 988675
695082 10456
168232 987910
469512 63812
76435 375305
364833 85018
834757 809208
292371 720852
472833 732733
75394 581032
367011 433629
983391 728375
397445 27087
904544 401857
621858 535959
641253 174261
317094 883861
654822 203814
601796 331036
702598 224586
597619 865584
113800 442225
94589 791291
325198 142855
947742 880239
249657 567408
412122 950422
433481 755941
423894 27291
828483 60613
523063 341387
764316 985381
952887 281051
507773 556323
522936 759918
991369 808113
514022 437770
728860 537595
887817 223878
966206 817753
561375 600782
909467 418775
287393 156423
92506 767732
957435 180234
387449 244858
34546 89522
768155 663441
53833 814347
458755 44634
862644 5255
917475 697805
397395 249019
148449 667157
550403 72133
968461 922666
166088 221406
416588 26371
235493 926977
778184 801057
57724 814522
919136 988746
617944 524487
391349 786445
344952 65848
757164 646177
803181 143898
644785 789440
835858 339681
759021 432644
936307 976174
675115 786436
460919 903225
893057 254936
34004 870293
749205 614249
645338 309679
384551 326861
751960 237390
849400 166469
197906 625910
890223 280563
876865 31307
714090 646809
578612 252676
712274 815138
768126 447522
542015 655719
232396 532121
881462 193977
940770 498386
662063 36150
451904 245293
793241 387353
30818 33258
196361 404826
806405 60442
849251 321776
452643 177535
588993 444024
938124 828306
483525 200375
677735 290827
252164 36093
624394 427432
828009 477910
147813 894372
814817 783460
201384 367905
839605 596739
235360 412329
713487 996869
31730 790161
320999 427407
322156 839209
664709 385904
982074 924164
242280 601895
723503 134424
160696 329340
709200 218339
982057 493575
453724 800490
523172 344787
36599 135068
594718 188975
976301 887222
937061 126337
192238 108981
405843 884712
903365 747520
356763 827645
441650 407411
364733 526151
159372 255469
841770 417385
164077 324431
652940 957017
461231 400122
398051 389551
91184 529815
744967 430474
248122 742354
837460 44148
347909 700206
666544 148887
657291 192349
312357 781130
169567 129678
929914 526859
361431 767510
712559 532435
527315 919671
566646 661861
15506 551651
705522 19338
503753 35100
945396 819547
710210 319569
601004 226378
35933 561981
579412 71341
144928 606367
718019 591890
656938 668462
981349 794787
387349 488929
562156 609708
767872 352606
188645 361917
908633 160457
882112 234957
551906 999122
549858 508220
232781 778653
937066 375448
786568 561826
93191 955966
628457 411539
40822 149544
184355 828599
529954 96753
517750 329394
952976 245586
738229 885971
836262 842458
451769 730825
474566 636847
748649 634462
339393 689045
482582 252721
390680 223695
473420 744608
108079 781913
684334 102943
538654 378888
177731 436954
575950 551297
730649 160952
404081 535260
584814 449716
399947 771090
694453 893867
413213 135294
342138 806621
885281 608968
380253 957156
492471 483956
190500 331999
562289 473315
544394 739358
609494 919246
501822 813752
843901 725707
203348 472581
748135 790741
539277 255023
188221 479554
729960 534436
457003 257191
35619 22658
797799 189018
265729 992353
20468 892702
956374 491166
265703 256193
592945 955439
178445 361456
780973 603089
122154 873425
129203 971142
739298 656463
690226 761411
396816 585368
871932 417444
759916 702053
564828 29038
626428 667441
712513 733858
84187 560901
720013 750008
864719 550340
405000 161679
650681 966499
33254 84228
933975 420057
763339 713688
791361 767383
210892 658880
788248 158929
421276 168472
449162 594144
946063 403482
910493 339442
353214 35692
543231 211120
379444 272955
832746 999287
97121 837726
74712 840917
816774 870084
588430 562333
171651 828470
968017 556460
554291 210783
249687 191849
860169 963124
755579 768061
923705 111616
133471 13837
51608 229673
516790 818805
57531 704250
451855 500413
981838 638013
293074 946288
913455 174975
509272 882550
54227 298411
99053 298688
487934 700036
899917 762091
791304 73800
842929 578810
338945 815217
284794 950712
432636 378791
500093 262463
757060 616903
657821 424656
830405 323309
752940 375433
962193 149369
52278 431144
438489 747713
52476 452562
318887 658231
240530 238693
475246 629364
751475 78298
228434 774273
727089 915560
850628 637995
406476 772847
885228 158614
968663 405192
484139 823473
210025 520125
554140 603418
70173 210629
902331 856879
203609 303602
410725 288964
297338 948654
856042 236904
846181 761237
431061 21738
804737 115986
369171 795468
985268 152663
748546 483116
381118 7336
205242 848119
165813 931075
997699 326567
87621 830703
379084 637617
251596 979898
691993 308244
82197 907080
761854 879109
917661 581211
786272 861180
401656 227040
698474 622984
670150 98792
63777 407477
777170 812271
980557 143414
618373 612438
453728 13461
924129 647164
580367 403739
749800 462090
341997 280517
583481 866246
47372 752241
275431 34774
522826 204785
449442 695439
624209 455697
866286 579860
639738 274401
637604 821313
194558 752476
910428 306374
329107 625857
261591 590847
989261 401934
876381 443664
303781 701513
881714 30193
913617 115718
753680 54304
199019 685399
998647 323975
218309 119739
288812 395647
745529 27418
647390 687173
70387 489280
718777 255349
957884 757517
570010 946754
96754 113441
15699 550029
506976 325792
839283 753759
707738 592500
828623 915627
840180 217318
502314 127895
535934 539621
20676 283163
871900 267081
160399 908051
938737 503929
901573 998898
17409 302784
780654 771795
613444 455531
221459 772646
17263 472992
721920 737530
49578 822653
203513 905093
686699 453299
295681 607311
223191 900169
553272 927955
669328 353773
848335 895806
684318 43293
760335 516716
138967 429871
193947 725823
714338 54479
109224 738108
572723 289911
2683 191017
905821 934159
214192 323782
110364 589957
189510 135016
518906 8566
255764 982176
860954 928541
253216 935030
535060 817609
857718 887951
945382 765090
932674 328162
189443 229000
681973 571435
960243 341781
753552 414256
849440 477430
427510 351739
831369 483085
517068 853320
205132 651958
941402 679494
882275 970193
154973 851615
353877 40365
653721 678673
265955 742160
633829 553257
997175 87685
142836 590044
450711 582583
753508 74546
789274 751829
611839 345406
573905 153842
352250 281457
493270 119324
683254 880025
194527 525535
730989 856857
99390 496826
367015 790397
311974 242859
141448 595725
468274 185481
348333 225117
187303 719335
207323 753186
788660 446967
675601 729805
304772 578855
635750 416586
505251 514474
606412 462877
169366 511632
581914 937641
672103 97279
83098 939514
482802 312496
214810 763227
299357 690268
58844 113184
607254 80176
485151 871710
654181 442829
199229 192480
329690 836320
651205 944797
132882 85129
763794 651533
82190 499084
888910 57034
568490 509637
520625 155876
945270 71808
830139 296838
916107 647506
851911 115855
572176 807400
656713 571718
541408 263024
280865 854562
236393 806324
322986 32386
718971 371285
989615 891941
30581 92444
457401 603789
684518 836457
758846 655741
878589 571260
463329 519918
803451 54539
72189 191801
623439 47588
132220 484014
118580 514328
757069 930178
363477 272341
92580 742447
119858 315072
216052 563732
638637 409126
901997 317181
234769 789884
359673 801675
690997 440330
55608 782979
198627 616114
313293 47399
847853 967319
174306 387225
112498 121883
571491 25724
334655 617683
566907 354129
103879 864756
326934 922818
100502 694591
14824 741607
349003 890857
113511 551833
458430 431647
387898 228140
588052 597475
310322 77963
310517 462930
830983 573507
194839 10206
781085 555608
75010 67318
705547 694110
372232 615473
728985 628005
858497 792318
495642 387367
87467 884791
149372 989241
567508 794362
338739 152160
27124 156615
979768 590426
8299 757609
732488 417287
541112 997453
395004 605562
874328 255724
328055 89834
384485 374731
508394 101989
16550 553429
603968 639984
41898 920455
67398 871983
725087 73816
852525 622605
220930 792621
250151 189898
851576 126802
547779 975443
407591 318134
757842 12299
473148 821425
807002 709248
478677 780087
902472 276791
302747 721680
163424 194898
714549 29323
270170 27192
333384 5412
246037 373187
880164 531603
535552 770246
124256 632762
999307 425954
77895 399211
841440 407745
589125 286835
669720 862485
252183 844859
27203 460397
863771 503153
637910 379081
607727 405444
615434 79678
412793 419094
699927 165690
353943 471193
704668 605156
53231 468295
456823 31905
159519 565248
137109 643134
148443 720769
392875 555333
353914 599486
885793 902378
442635 155194
535457 310365
689324 838775
100605 768875
273767 619210
730029 477163
541902 376074
29486 670074
816320 489900
623633 162444
466701 400776
833533 222574
182124 969950
4825 777235
498348 476182
273876 94832
72682 977948
37952 121351
567405 328229
756109 641335
626465 922838
31270 633420
220310 22221
766615 554239
460172 560257
69196 333725
757756 718590
107012 597660
739504 607748
748094 905967
925667 914059
821798 635620
962514 611189
72669 621088
211112 283813
338071 864682
652713 876369
829606 88862
60975 727276
318830 707047
403722 553346
950247 861407
541309 596894
399895 195750
272796 786171
16755 849604
978710 358693
485121 597315
978294 433219
119108 291480
305032 774762
108084 831053
418153 504638
113418 438961
627998 265715
939718 417739
955897 329351
88533 42096
738992 960237
822250 673421
621572 249005
316376 270919
938886 947208
963077 817698
80747 668918
354784 57735
225277 905213
475719 12520
389028 483252
463424 176528
675243 66550
549676 130555
46297 692452
852282 188843
669680 702275
651544 766465
157780 39974
926579 71064
764998 604465
952102 451731
520917 322261
327207 641695
586468 140763
474761 766015
875478 967855
166538 723333
164150 325222
336358 298877
523163 520934
63830 508811
607719 369296
566085 378223
403803 800076
713169 669509
361760 805792
638382 36769
180466 918018
809102 214765
431230 16108
590762 894646
16106 928114
490494 932988
447740 577098
471679 300889
892047 409947
583398 116483
403666 915676
999617 61786
492089 80845
491152 873441
547415 169529
783206 753875
550559 823800
474749 384132
66936 504046
945434 40840
92212 657672
356321 368947
741050 982058
987882 504918
741481 603981
877962 269695
350339 315974
91876 41145
947835 324080
697409 136897
706120 305594
732697 55572
47853 707482
408245 616760
708783 123347
602864 94731
910178 176911
739412 242854
246970 24726
759131 275928
635372 207443
840544 799441
502285 998906
24768 894050
320333 445262
938669 317880
706021 179372
618265 942793
904429 991709
462369 538617
69343 456737
535320 660275
142867 353914
348569 270856
556276 204079
967596 154221
892079 678060
319401 447589
597293 35822
148474 547247
501826 929252
335696 315275
774462 845015
924160 975007
15232 378336
146998 311479
550910 251078
657483 764791
28758 7954
761861 708824
903261 726384
43314 559593
194575 227953
715297 497808
822005 614744
121328 351325
426716 621240
417116 701626
802495 784162
276699 169214
529501 940597
719423 611357
88581 226983
323303 604871
535613 847187
456614 303864
489464 722245
161014 299168
54881 842545
471427 41616
666493 32489
842744 271167
821721 965285
204234 990443
983287 939529
889719 606945
946122 543628
385638 440787
369006 412468
294609 508957
765153 815573
620643 49833
529044 549664
223381 750379
871332 493022
334913 71222
49461 678532
463921 97075
236518 459122
578853 261212
82331 538972
204552 676109
580647 745788
995797 767593
774302 295568
439279 440727
151818 412148
706369 22133
775915 553988
297784 833112
56617 311117
398783 408824
703374 983261
502233 105167
547302 127845
182366 884711
973182 872786
23955 305329
985830 185419
500437 523839
174396 584607
110312 397122
184728 518060
483589 71096
182879 904966
96068 771038
350896 442986
475101 238873
450048 125014
802057 952528
366485 436233
823009 86586
765102 125220
901759 543069
524572 914441
350855 929982
703015 838519
691973 225605
17765 421698
819809 138222
425312 446502
823190 284114
462701 451926
733063 232902
94499 383306
106831 95103
580586 187229
366446 862648
49052 684744
947183 448927
221476 331871
882331 870580
4002 716785
128261 752212
297465 376552
82428 122859
943661 975824
478746 133699
85627 922097
873768 172176
47694 927230
852865 780054
886663 238464
345803 400771
304394 260879
849215 979507
68038 112819
890574 398833
222923 112586
737763 143847
46817 685328
954728 972285
926098 654105
28245 192319
921671 937794
271092 30013
94818 621582
711677 489830
2480 925568
731624 420331
157239 842887
589407 951439
870137 1042
222155 832893
164787 516171
312054 409110
365001 453536
406814 326309
926334 314324
79673 198769
239532 229367
526281 546123
755739 796912
310882 636222
110030 294525
917285 867203
265613 523574
606571 897836
842571 358084
473196 625448
593605 993803
463099 323852
820919 20127
959434 604555
881898 590172
68209 315182
594007 459314
753222 37391
683714 126682
621494 274635
655158 577877
949208 25748
130667 17792
55030 42891
541974 558173
263241 519069
350891 595271
715512 284127
867816 8148
811945 129417
589094 34073
434422 249449
267011 388820
476931 730077
179959 207691
43706 657829
83665 976753
560556 10188
754172 759343
336395 955487
927658 407207
865066 959007
262741 41025
879237 385961
44122 115693
214971 103877
362271 446310
773615 759157
958125 783577
980485 161843
216861 643915
344721 698296
850618 750760
637909 910016
652868 151816
589017 614384
84126 19598
208242 593423
561467 307440
223353 410729
601127 238557
853709 245257
121015 315688
736268 140462
448798 315291
525415 877851
294844 685738
686669 844517
250873 901532
602532 886253
861677 80888
402930 722567
548663 19578
430770 902542
987530 73757
889492 739638
961052 301048
174499 333293
508910 15705
773708 177073
797588 492343
481644 849942
152828 90960
715035 588003
321299 290980
129089 289963
919591 90314
29884 74669
788686 772186
213794 910767
954056 877456
589422 701114
338803 64184
571857 667526
672102 331468
837379 158280
581074 847837
615450 584802
778992 8677
707594 646284
497027 477694
792048 869029
25166 359699
721936 446373
218241 417896
507112 99729
109993 388399
591402 191997
3543 207248
247606 445333
589982 74438
305510 456257
473651 94439
635805 831055
49890 58520
952917 853398
883305 881533
717111 568499
134581 374043
851141 102440
460418 55107
52306 589561
146566 888607
812284 248707
255170 723817
955985 53963
293859 198982
11326 826362
794659 662794
86773 935863
522743 487133
135179 515102
896715 774010
418176 339983
901845 12820
742254 393843
102481 283483
756852 454220
36983 59250
851326 832599
491931 277112
822334 882735
654262 416956
473886 420999
163558 207673
171205 101814
82651 281401
862365 62287
701779 809984
943255 345734
973609 457676
257681 525114
160706 708830
653472 158888
601442 271058
75911 866728
892604 838116
923241 739766
81941 150140
559150 33714
161258 611404
482110 871492
108690 404728
346305 395108
927975 468629
905846 400571
276199 477330
664342 236275
199595 188555
681384 330536
843333 933666
650780 554629
946085 490768
973821 342160
345483 918980
654932 832832
252583 114877
579944 928944
372381 242514
650194 886933
599501 351825
116030 832943
522418 171301
381723 745289
243433 801894
786562 969883
687297 51832
595928 436481
453351 191484
943957 120847
973446 976913
39039 505842
698876 747566
762223 463226
631158 960240
726645 470970
471041 473513
20982 884019
802538 758669
132632 513293
638166 609743
277176 29270
980108 177750
258154 812189
279592 56175
876696 578741
219447 528987
753396 613513
232261 486879
510994 612172
294544 6316
117263 506678
805622 104703
745028 629676
835808 671495
441809 143789
453719 847606
268754 738518
444747 9666
272595 495612
410589 298065
218322 23137
645538 439759
733519 638161
710011 275326
733736 702915
246057 939354
79509 433273
655606 915265
722757 665344
30434 95967
787177 331693
331438 289691
757966 159121
960348 296755
948190 927583
167240 701754
222287 733212
795415 89171
601611 108883
125283 94930
991371 747889
675419 579363
284056 139626
355716 979847
349229 221909
19474 26791
549503 490116
103445 300455
580309 896306
44453 946283
27075 704070
483352 956315
201534 454789
769996 725926
723524 38552
981477 812890
322910 266337
961548 871610
756067 87314
572962 543751
752505 729926
591906 247962
177957 463109
602007 830119
758488 384438
40785 572501
35490 878229
237010 893488
825534 912615
345178 520086
819356 20756
685056 160830
330356 476338
336530 405124
298814 875583
559362 579700
524901 207895
760321 778438
93311 613264
877091 795664
745293 363986
90596 2027
458482 917439
137046 94773
942760 390432
739966 390023
951810 536553
328520 685570
309536 646069
116250 800221
601383 684421
127368 522497
158214 470007
467826 635811
458685 642654
347713 169353
705837 2647
468586 585662
964931 130739
777793 872662
787778 31119
299533 267236
777253 634946
440391 300918
599004 73745
816828 791213
78586 582421
934854 748874
904630 254033
354899 431538
664101 478667
77806 726195
551461 407744
367943 309251
668264 85367
541538 979504
513176 945692
561252 181144
902528 612634
232000 321572
743152 57488
948439 530879
865459 115496
40531 163240
803573 263621
914122 751396
106399 531892
870114 54912
381082 806924
520140 818845
555582 762110
337427 505816
889326 512633
635699 332638
620079 543100
506775 997729
357373 674037
654098 700613
378898 88600
295813 119003
206901 130268
39883 44746
811334 723858
450802 679184
113361 120815
688403 955748
37081 182728
563037 871426
125105 680434
416618 60593
857019 589112
932674 857532
140742 570986
575824 964874
150798 951173
440222 930374
117311 385217
38980 368646
891546 62962
988473 566704
870046 178046
522735 630486
65376 708955
177917 720704
523514 644756
498967 84555
408629 592816
848399 83944
792614 163475
820119 572099
445094 20780
928828 218065
296667 250309
295825 280246
243719 830921
103204 363596
212204 993602
250519 130249
660710 509296
142015 150628
289591 832778
92987 699667
760520 642408
874969 141222
654440 590657
341662 191928
271847 943250
526156 186046
222161 486491
593607 512278
769725 541518
716094 596658
900501 315469
652389 968899
722677 366196
868518 803468
241016 836815
585099 562406
495284 285953
140778 28539
944232 45631
368836 509270
464456 180268
651767 666053
929388 204437
12528 416060
398821 174153
142852 271241
96538 973864
422948 271861
332813 707552
239937 112952
477464 347960
244129 590
631475 561804
675498 922941
726772 754683
686833 945622
517778 264242
574284 476975
799162 590329
314487 257174
601774 950040
435342 823625
454036 430321
150262 524068
226306 308008
486206 642024
328347 801948
631667 123904
111402 961192
210987 929952
978188 413423
868739 551842
791763 148982
797745 16940
559214 825643
931965 435723
467061 835951
144546 720230
584697 66818
327910 406365
672971 684623
6128 60564
499520 329154
877940 2965
509292 964643
898568 360886
3914 64162
950817 175695
86380 441085
505913 654994
398830 293510
971067 74212
931716 527217
273163 464270
22986 766001
569747 360341
246511 625233
181465 219190
129377 968343
977904 305835
467061 158891
55187 585299
833682 274435
787497 196032
697247 855135
840950 959147
422112 747916
436530 240298
518914 154909
123657 366120
871528 776553
543783 819035
142244 366155
740864 856446
228050 610962
884703 75507
432189 614404
553867 670045
926794 465935
459482 115155
487667 760802
287970 630800
66711 164677
18847 733824
465872 315845
352570 370721
822639 655632
533238 383416
215833 349986
990522 895349
720240 368737
420953 87168
850037 841240
708508 792645
440315 228377
311413 189750
821571 511250
948061 977412
670494 521136
142741 541928
796952 380785
3600 405176
394444 440431
564336 61473
183760 467495
367891 929825
840434 192556
105259 680159
849813 835117
435663 180096
414030 771289
230889 950428
267813 210494
815523 589413
299732 579768
984362 866569
564371 75805
606463 111351
583612 903234
378766 294522
732165 163202
698766 179935
734936 701307
941189 424550
839306 973789
925015 306776
97753 597859
389264 738624
640770 241929
674717 840930
723009 549391
331103 902023
916054 528770
31407 345412
599216 977259
507299 557458
415220 173486
379383 155108
899095 40401
750215 788829
723957 552264
644478 582613
300474 280217
257147 538062
892483 605437
334257 939360
930962 464200
384891 467530
204971 99922
74908 154071
768585 924425
593959 434815
127063 298107
29297 701280
101127 206834
521835 328461
745466 268858
758919 624485
79902 752134
427103 457537
171103 785850
513768 146820
324766 19447
438739 866400
916848 952795
428289 589551
304918 951023
399373 525926
2116 277547
457290 711492
632901 918309
571753 717699
794564 837363
849852 552187
767451 197430
442976 801816
112005 487712
783994 377385
642285 743149
124646 149772
857014 893118
749951 686022
304455 519857
594984 870546
508761 594133
75125 539002
629102 496462
65237 452308
269622 300049
584454 251655
743791 564969
220179 994737
252375 273986
238248 97326
140913 45904
609026 628870
50759 213514
122016 560904
221713 266789
991165 502213
236713 793021
287072 254537
814132 54968
598587 347960
118640 271931
583545 965814
570727 38610
996468 516464
909313 438916
730180 730051
766774 903999
435138 972171
316292 828813
101470 664059
214985 427890
258605 385114
935522 81309
600785 594411
588657 908554
900570 707662
299385 941426
650821 162964
490028 968909
784702 49716
947732 505263
854543 459575
540865 668099
507823 612589
915118 366174
448268 288288
934583 949360
720955 708157
429736 284707
971651 968769
282319 506482
453420 618485
865482 586727
64318 337554
961812 446011
959317 523868
469353 199371
224702 156819
183131 651958
66898 671252
117755 773312
25498 227393
246949 907814
497001 248203
702195 700851
463211 276081
752690 168896
314346 642282
179538 232456
615034 202785
816497 92084
708038 980250
351208 891779
420101 324382
98239 803870
368865 635773
760461 812222
441824 545038
297857 950459
255723 203737
670417 386919
205580 198129
816703 588921
309041 994560
515033 254491
431819 448715
833465 574080
339510 913729
820742 317301
860161 205380
934110 237935
215899 407630
39059 824711
145391 781139
599462 674470
658732 384079
305019 539288
218963 429945
45191 381768
525526 968038
902809 743166
819742 801264
638960 698789
425832 103790
695660 935545
837581 314520
342455 966700
460168 740571
167497 462490
212849 682161
682504 713340
230962 200042
385745 645776
818793 880897
220834 271421
611039 284436
307454 395970
81302 710463
520916 429047
691534 753886
947974 101885
822324 14620
909178 621769
822034 277900
149599 514722
690201 467906
201135 270907
722978 5336
527235 191335
548802 476607
989729 984331
58631 305934
880893 521952
303527 286794
926883 455802
682824 790260
298488 63276
728940 920560
238544 678958
840937 376472
964586 7823
97806 639992
19936 740257
658925 820844
983644 470615
920258 952697
35392 905113
452609 745534
719820 379418
544882 292974
190314 579542
223061 462865
813561 13256
134535 161890
361784 184954
191658 201641
733675 123522
531731 601195
722778 333967
589276 126070
434672 353185
835759 829875
53457 551426
918299 346036
448017 517232
952887 287829
463095 213495
444131 443636
193322 790914
251652 153227
934841 135757
10365 252026
824867 336275
754136 760970
581049 963477
87390 313436
368377 677543
668556 516942
29034 971691
674536 939269
802969 915497
416967 253001
775522 374062
99438 783294
263969 772855
526979 579558
96065 928346
10747 610371
32818 492162
667173 266671
619541 658065
925966 251670
971219 134922
398623 205872
919306 706631
693927 701599
451107 831500
739750 892408
682475 326366
388184 791090
363209 454192
961910 872741
319844 584156
59047 977372
635251 487178
253601 326557
459636 362363
726091 299924
504245 775739
670961 213794
315428 817667
226742 152240
149457 64688
10855 879032
722812 895636
191885 337480
156254 389036
512391 383099
720025 12711
834671 711680
978364 701706
489832 652267
735523 226954
213529 699782
344433 663240
258068 866549
995000 177956
475636 914947
316994 183315
528005 728639
688175 101923
229280 192388
198030 39031
906509 337556
800807 465502
279365 382781
858802 399057
396895 345717
448711 744527
671678 816963
574721 995564
846407 898321
235011 68613
604374 127639
741724 306220
238209 983585
730234 473187
990943 885900
435491 742703
645381 916459
973156 826388
700043 535265
498407 60983
445621 917787
609781 885074
501657 991756
428669 306945
741033 649431
971988 406154
713538 526819
50840 158397
172211 27142
594988 753893
281346 60840
391131 533247
560974 315835
262278 349995
460165 81607
949501 947089
981247 435506
784731 693486
261959 484242
419002 801677
94108 167393
865686 736208
853296 642463
248171 293202
617299 406381
708550 349807
89036 818316
237071 598458
581558 656170
51463 36315
953023 129870
838104 478730
708894 751718
362067 824967
941514 240397
859343 478409
13353 453228
441355 989676
557925 245252
908767 614538
532044 258269
399367 364740
515437 261013
208660 350902
130053 439910
89388 179503
367579 875790
343162 330857
225047 139909
323546 249527
131517 881548
178347 837898
962786 132064
870125 846524
822548 371859
770278 834988
768082 429957
591120 308295
617291 627202
358855 465580
203661 240187
856217 344387
978717 133990
940744 751871
216249 122094
817114 646707
72092 5159
420142 462889
95297 861691
931626 681680
290519 484287
1663 88799
644736 97071
140165 851244
176776 343047
330227 31066
780527 791138
336102 797655
848278 263163
40870 924219
512263 377906
906817 463304
550848 939375
860161 526420
827290 929822
640167 942222
757443 874013
879370 448448
996734 739193
408813 939897
947461 93988
299006 147450
770570 576104
100642 70528
412725 456062
966866 892590
90778 543260
93574 925700
849372 838423
852867 538329
687127 458599
510796 265426
184852 148176
560835 591211
876088 618633
295585 686444
510602 628939
568135 34276
533700 940831
835729 274192
132528 721252
843953 834128
838538 512869
917437 505660
983895 75440
418315 205300
171110 660114
980255 535340
151218 376051
682728 481617
836656 330859
65863 982194
793682 762281
312723 930990
317378 843256
593313 353575
250710 879386
284602 901179
686617 383550
237791 543629
464932 238487
461466 184578
272162 550163
295759 295309
564045 767293
424423 139283
23255 92097
882411 376228
951928 942755
266572 592318
309357 364255
12512 935873
353485 929662
360979 964297
508328 874802
192282 438283
827351 277738
849965 524158
808923 702690
429930 96798
565298 946581
804487 698282
687588 701130
425918 96296
215339 791856
943724 954126
452373 881969
791545 630666
552241 531331
861316 257641
89441 523541
133395 410437
230631 454706
268380 21938
539346 495850
225091 137015
221710 272718
31605 9914
692921 480169
593708 473731
44787 689977
465958 693529
698733 698477
652454 917896
645234 211119
76916 440317
344435 842071
618588 112120
121742 217475
791617 911703
411881 916777
669872 985811
839252 306751
979050 760363
830542 611856
998293 662182
5836 781241
873762 625732
438771 465879
955308 565913
623985 864854
927189 329457
96936 962948
184882 346240
490411 71276
600311 84217
549539 110713
778478 487036
848478 214567
758653 36133
649738 970380
705545 619654
313002 29332
278531 347152
627248 136303
614874 870507
503217 666105
156451 657859
881016 195173
578089 778429
113580 97150
315242 259543
600992 648308
364269 862693
276157 665994
285369 338699
120036 126563
975994 727551
539036 882469
667592 774326
467839 237515
896133 392682
222218 88751
227570 133180
810597 599365
977331 170549
999368 577447
335552 756452
51218 89531
273401 153912
130856 493940
842131 330395
579890 408703
669772 438278
936772 990098
50455 987628
500575 474414
152448 179497
310412 198639
645220 159597
201228 348072
762275 119880
853260 609683
790833 398546
244111 41139
845703 117712
74769 22524
407309 411041
559200 130745
499708 861928
53382 523263
616399 867039
804193 411319
798444 358537
128020 299051
977568 998912
66186 943250
905289 325754
533978 561912
859006 728634
869035 5156
645893 392925
103894 129822
844316 44274
377593 823778
409973 561504
978622 726694
974068 980484
180065 31714
779731 872877
384126 498235
879145 480914
331235 404292
22750 276213
835680 745635
305558 355216
808632 622848
187542 731033
191499 964486
741007 439361
878228 171058
947503 369235
26359 178730
234202 843492
751626 85226
773668 485388
893094 543927
311569 131613
508406 449605
712797 701969
548820 830288
196065 887202
167050 136794
529934 349804
974361 493289
751759 267444
859054 778671
570621 723985
703889 639790
685426 329301
1234 822230
536606 278165
596965 300900
238387 654868
698983 154438
978210 185608
734968 295666
456104 296464
624895 419799
572134 784668
437696 666567
836485 534087
852891 863749
352090 840690
481138 419509
369829 659042
678013 749422
322943 372839
625966 757871
675082 432127
323585 684130
447223 527979
264108 527021
84044 879790
548478 307624
278032 826964
145258 567631
299895 582032
640422 313715
314332 442709
557414 203672
986591 71701
704520 619238
382622 957088
826471 277708
700846 563766
789487 84107
820752 922091
455791 714160
768951 221062
362578 114830
241851 918508
718060 942743
548101 367407
37629 453787
272466 849791
234178 701970
649365 401281
245555 40609
538219 764294
106136 956129
441980 273929
30615 989202
436541 819650
19928 967674
233105 952933
734375 813429
605069 176543
365040 514384
444929 713536
770432 158503
111012 475361
180645 156247
221919 661266
247973 3684
127643 463706
526296 665664
723152 354504
113152 794685
223918 85715
56542 954147
382038 665128
381753 663335
668314 777462
972957 343742
410383 456824
261891 326525
779075 557361
634668 654877
498531 38907
732980 868652
621928 251495
794980 903785
146987 908435
82784 142128
101260 412279
401505 716610
709614 979611
85303 952236
510832 391396
473488 277884
528104 121558
140519 823620
459128 727025
391322 849602
122463 641855
724068 558456
69791 817836
312017 325582
500383 504335
542126 962002
363873 31803
278640 982525
324711 340894
229695 363889
368947 59952
133802 905636
126970 736630
465388 344200
182552 451653
944651 222824
145659 782030
453468 640352
266854 188504
220937 466114
645563 3801
656614 608501
673674 81881
798014 522845
68934 43758
897932 500218
117361 308135
510738 144313
111477 763075
813651 846992
560978 342350
410930 592312
151550 529328
808847 992555
683645 918868
59293 548137
751806 502699
610109 84082
767733 374738
940 839983
819521 535306
42368 960503
260640 213419
217821 278330
635514 513791
925396 386640
697034 101284
979105 778560
16473 358139
821997 955597
845999 228628
624901 740104
715347 122572
874898 429002
292115 986161
594973 456288
912942 913762
780896 76591
419902 962397
967744 738628
553252 710437
919081 432171
897656 945924
306273 306016
755922 542699
379558 73422
587872 328183
791307 242601
405205 97414
904093 396051
6906 486804
250989 641892
601026 970009
739211 448772
122248 736510
645260 417924
840267 946910
437694 205203
986984 550854
123085 47559
391855 911426
538174 568100
124103 177615
86616 691969
603176 603961
601404 943806
904962 483274
199681 797694
579913 304867
466279 33563
959158 525565
31605 592228
582683 779372
61580 614377
258952 583682
169439 731696
214918 912057
132193 159871
242522 259039
459142 124295
133986 323406
739170 265869
475112 70530
504289 898983
865232 507476
652039 575449
847547 410555
670854 117578
490414 101142
108672 196089
596020 738631
152104 246387
59574 124515
923058 466955
867505 624840
664756 193556
649131 657058
779165 241076
486689 683375
182647 763537
903990 96456
942698 702823
904002 29394
129947 147597
695192 263677
157166 240000
952488 995535
739073 70705
76775 115205
887273 936724
209159 843012
78340 57667
10061 793015
632709 459684
688243 854014
754730 810395
752036 636355
234166 329996
892451 530985
121834 725741
326587 922133
466491 622638
166567 897586
470480 917917
299530 151433
989815 686238
154560 911942
68647 110650
121592 529831
171576 88623
863178 602566
491250 258774
973112 555282
567122 496979
751586 151046
426238 818426
140891 544635
474086 134901
399040 625990
424332 956996
45940 730395
997245 871297
680360 405824
374535 43648
24423 173181
829546 373213
155875 519974
96020 210126
700140 854203
608725 491219
309492 454600
25623 93022
739570 447369
614809 655612
447459 541458
284532 700997
350329 960268
523497 178919
31306 879869
568361 310803
713319 529028
581392 206761
756307 936869
853090 376558
524969 259258
83474 267680
509777 193401
86602 3955
243193 652433
940924 648396
719281 603980
662948 155021
882339 626606
2604 371679
843102 230767
115603 377506
532749 57124
524586 271855
242798 318429
664859 601900
787020 542413
644420 569959
323620 963975
845840 757913
470818 136362
401530 83919
43233 842906
369451 641794
318990 599185
598632 406455
423671 35870
43427 623113
768499 968142
962918 666537
918205 889638
610191 215138
359675 266818
520777 838664
764021 137863
608076 671811
892496 625563
279960 169014
451895 219818
251550 530625
789837 640508
497533 994756
753129 644655
936017 542358
255174 517774
89500 306044
414051 371567
455765 581775
638311 487305
630251 58639
554302 331007
89836 363666
465982 202765
423956 583056
164991 563045
335645 747345
647280 957476
805912 819780
177792 766030
32487 800084
962095 665047
597576 382026
369396 271713
285436 392048
841525 564188
624296 900821
506535 167978
290788 582977
131404 402939
373052 450075
465933 393743
497699 416509
117170 314883
780306 834442
329381 425728
744609 513367
669435 122952
194508 337057
428845 70130
188881 802731
621755 220858
407742 585029
254883 379625
634332 773823
696666 817521
331763 206006
176362 610357
231357 922481
616401 595403
360208 303762
549141 636737
401763 868367
242837 191756
662047 774902
921182 742824
111674 345373
707981 850808
489516 146722
195106 888118
384980 866712
169420 685128
606007 563246
836598 206371
183209 230512
178952 778710
412430 204958
83344 148482
923722 372070
723093 387368
976646 332904
3468 616914
386652 681359
446977 774348
223874 966911
373279 106855
390560 212563
958553 380673
862703 794439
586539 281789
127569 959719
303036 378280
472889 448659
376944 233470
494340 326804
655535 948013
79515 205811
251796 980641
962182 814797
577841 266131
979614 106579
427867 628440
521797 126029
577483 305892
314437 464447
187005 632513
539525 274043
398283 338025
479835 422398
958144 573032
44233 753786
961935 787102
300291 270679
61118 148781
937632 113995
112048 328181
924027 346627
158262 59268
204192 881321
903812 460054
327639 128108
897030 627202
881460 252046
287302 753235
468164 933342
431411 862079
397709 243852
819907 171587
842618 505535
790419 405819
995 954962
449225 967246
596104 150358
19139 870153
374207 471500
952165 125594
416572 748658
407972 223834
43088 327469
581914 606408
336437 731571
900986 342874
35813 925620
349372 447190
14997 140785
680287 89690
464280 756245
381797 863886
688841 473018
796526 721977
160165 821997
316628 595537
374273 541883
92327 780673
985952 179312
24693 952921
336473 263307
879408 160586
76660 885269
560116 610191
564369 859933
105757 912007
442875 821402
380085 199482
808680 930294
730887 99261
310792 112460
327581 475602
923985 983524
627278 807547
837848 996796
745324 9832
629672 56691
327362 467395
667589 587456
274674 861232
724976 382918
400084 362559
447410 122848
8083 520119
723729 257946
780042 864080
607441 514191
514030 208295
604812 116
243219 85462
653245 569167
505521 872132
705768 926550
57660 908746
980121 727352
528227 445618
650083 442029
704135 67352
108056 496824
655811 32096
673389 663021
480369 334550
952580 502459
249546 530036
984623 487932
449985 732072
525945 881653
290632 629583
65886 93261
990657 559736
847480 758590
295458 142329
767452 173764
941364 789504
191237 211907
225120 649488
658523 284060
546442 844705
645114 455978
435116 529543
162116 111616
315538 581336
254358 244994
650124 117128
255220 593890
605626 655563
451043 284702
135585 815517
452941 235791
618272 404994
868903 471047
860478 169255
449196 672386
934799 129981
160847 207275
191390 628719
987845 359672
439658 786763
759453 552742
338644 827860
913483 815454
187154 607497
976266 641014
425090 950216
46693 93329
806639 913397
941586 244951
403129 298300
287568 519821
887282 197987
200913 167274
19640 685888
773589 153060
570243 634974
538945 514992
100760 819716
518837 889131
52462 235219
868130 331491
952316 189054
866282 27591
160536 435081
277482 375575
869122 903292
388564 825762
275001 303972
294909 398417
194689 4022
36885 843477
707181 28083
972207 979446
776015 553028
613088 987669
652401 592627
195348 555660
527015 430118
429637 372319
622919 330459
120690 995854
452562 248212
954121 263259
927392 3878
548268 585930
474806 927520
263626 171921
783564 378615
706844 197982
192222 298804
64539 714609
716529 851305
601421 683610
373295 679392
333170 774356
912970 590910
260749 724584
868223 116761
715827 697518
170447 85714
910788 32519
692070 579701
730172 882238
755861 139112
818035 417685
653848 384372
778687 265549
162483 512726
117898 997596
225588 170463
665656 268874
440009 316891
195351 961849
717376 371677
495444 862914
224439 902032
129250 824122
780253 128436
764934 208283
149944 455944
453916 508942
226320 345078
362734 869072
384944 972546
276210 331589
705156 317767
501931 744432
964808 580954
32143 540317
787222 710539
599384 945496
264944 527443
694756 480188
786621 570166
263115 669336
358013 657750
515118 479751
441926 936174
325974 2215
119506 810399
844987 23008
114145 413764
930658 96750
316972 664075
945972 624246
765000 124903
347414 177124
485256 701525
981619 495324
520076 184731
481772 589833
339351 15721
54677 651205
575013 166866
935100 450057
57370 378323
347256 498363
304350 26784
101494 590396
977180 987146
338066 95819
803447 450250
611706 845840
539872 966659
540455 187056
277719 654501
955343 888498
174905 181147
68042 590017
170889 58417
525557 643525
942649 510496
353401 851705
59773 654141
41337 601495
636387 700929
797556 386849
652432 899059
287659 675000
568376 481871
508397 919435
332001 263778
815232 885693
577879 40142
568096 535232
365599 872713
456474 904339
766546 810364
256959 50589
354503 9731
565111 864195
958762 889204
694031 947311
277578 286156
367604 636802
594156 113124
456710 433512
272592 361270
827155 689241
852479 284520
317862 881037
937788 740713
931160 528966
674054 362548
100511 839840
24656 21546
919143 570739
260283 937337
223589 48921
613962 28811
424540 810336
970395 550392
808412 243252
557987 928003
644974 650959
813581 511999
934841 490805
636575 701319
406221 331560
51634 565512
598138 544144
629262 345432
200270 786485
421272 664691
284349 125831
773315 496172
983264 796710
982737 158030
681717 923258
442485 777707
294853 165877
466061 147153
361336 934345
756850 39785
169294 867397
289724 855655
683269 583586
322146 159780
971748 290583
575079 874038
355823 416150
742320 1067
674131 825464
694581 583420
136620 244235
66274 526939
259823 398884
79635 812123
608646 2259
894144 875236
327928 85477
294146 508283
351865 555687
514504 872840
649374 362268
149015 859715
747864 86165
270109 960222
720855 270314
787922 365659
898834 428992
933026 412789
447088 899198
50795 237777
268516 51808
72520 866424
492126 819036
100250 178839
748949 783787
530604 369548
812997 550973
518005 3554
35132 696945
735995 882899
152290 288965
472070 432982
826220 378816
907190 916571
523576 229535
562973 336142
632562 745263
706947 359759
818394 748667
622424 325787
22551 700823
793445 100426
754443 608156
661387 638432
48140 874134
893678 184289
637539 203931
212290 400396
558597 511247
652792 831602
957067 153291
99836 997287
560162 651065
917806 110110
17992 853226
35618 154619
119803 871679
842512 397228
829806 566120
606971 968657
771630 719245
695938 430959
996951 285716
712834 172528
652884 730582
661875 736060
882011 599057
759732 928687
369420 969684
854192 253478
389627 217623
264890 93358
24977 242827
210963 643821
539771 816033
785493 467881
646018 48350
203486 161013
593196 665466
62526 87303
843928 290741
975098 290914
353259 919336
643959 258214
512990 908872
764293 137458
927184 244447
880267 736823
359605 669329
936651 426845
742331 789732
934994 547735
130048 337140
555761 766050
322770 361162
742475 442658
71399 880044
527951 169831
564826 266479
739405 799932
247701 835295
953391 966787
458284 836999
348772 265727
836651 937190
704189 944662
408113 101120
236961 173804
702976 252555
147648 665391
835298 924204
372730 332070
607626 592578
475132 109102
484602 493136
26010 188457
328477 969163
115912 3962
712154 916022
385583 407687
587176 251794
385799 232130
349099 593717
945181 448934
650086 227634
712053 517874
872469 453379
267819 16019
969842 385440
762596 317502
608078 818280
776641 74708
42334 666720
759204 857110
667714 127770
628381 25940
255979 221426
899127 439919
828697 702067
582156 4601
227234 970655
804300 339049
247379 736309
674244 489327
311125 637925
127184 209721
97028 303067
443715 8916
457404 56489
150764 108249
804208 990696
139493 848861
174575 946639
445434 821131
232283 535182
47523 496990
573825 270713
790163 493103
641204 983334
405418 472514
303319 327649
68886 585328
722174 257343
510298 765363
880211 713762
643760 838644
156492 846404
394337 679316
530534 61678
264470 28381
713708 140048
774289 974817
384163 109584
915898 109418
764333 488843
53512 742799
321583 989706
185542 164832
972500 610162
335243 870583
538445 978261
416675 718793
762307 738227
917275 330167
479622 161803
687788 452700
448274 494738
135502 23500
417347 835752
163740 335701
615597 959265
680752 25537
852833 882778
531915 538249
831021 594327
153258 122841
807382 442134
3739 297492
969999 918003
499125 496038
263926 522605
167656 835209
553767 630668
92607 525364
896719 153155
56489 333003
696072 244877
200024 853847
668793 828914
681728 282526
270628 826906
383544 993262
889579 480518
378693 135681
641152 131436
207764 811218
705120 775851
855286 143756
238168 222935
217816 194505
367666 936015
471055 956211
908494 597897
376727 179423
105304 115069
124681 287965
308895 423305
233039 326305
360205 58195
837937 923797
684562 866408
26728 919801
448331 78313
476506 763768
491302 745951
246749 434795
229935 524498
912122 148692
546078 126264
329638 24196
988803 768082
68474 53181
394535 573395
626883 810345
342881 401862
741642 795285
24985 978638
381129 580915
488615 104065
455988 987594
116170 112171
799666 771889
729222 567813
949136 917541
364693 13847
30637 309987
562489 630907
949048 67084
520803 317085
89659 58637
273267 59456
575481 153772
716739 678018
210931 164251
42303 602868
352866 122383
422916 805457
480039 851901
585025 877123
881795 63251
738666 543432
266269 482760
710983 758913
24099 333533
784424 957731
771868 103087
305937 452549
333491 967725
747827 619712
118784 792629
133865 816906
284113 399462
904929 234309
785746 819613
893631 502483
5860 562028
838817 839486
535121 407585
46624 673288
429811 980806
145595 837455
763096 16346
778678 184294
201716 988972
85602 313298
604896 681281
642956 753416
945624 495530
579989 40212
422622 424537
335812 403273
429482 115936
610957 983532
841352 3360
340977 896616
146251 657794
823591 221780
277440 835482
525006 194106
967223 851699
551492 396754
216452 955780
815742 208833
774930 435852
548614 761189
485973 519534
563054 709877
231106 15988
311493 706182
21512 865967
422084 97665
763800 478015
94298 902475
18816 433272
271422 6736
367478 661400
322414 238592
154934 871009
373937 389485
662841 788559
62792 557304
974189 95909
367078 391312
524638 70960
553133 156757
605109 677293
347079 840659
314748 454702
462131 993671
860128 155774
111426 831589
11334 651716
647694 57894
542314 443270
150965 100618
84190 596074
21205 199382
399155 142726
4775 407570
439506 793692
329319 26242
921363 447238
275772 617385
366820 232641
798026 916770
41539 231197
773493 840672
34391 214846
670071 147350
796189 393031
959883 322522
154909 503000
97496 828098
606187 41666
126206 556374
198792 124511
163011 183633
336720 742127
833643 239089
588458 389394
703097 125486
705319 567940
656061 263106
631198 609450
360922 764760
391304 118399
724061 992022
369684 301194
628469 952724
354362 533290
143067 495727
689807 269464
749335 427361
808 571663
87900 859866
935009 935463
97028 175241
912537 685174
541636 322835
713973 886057
562892 279327
575974 825490
890765 897858
714886 164755
766090 484476
920058 778968
190482 971204
657666 497998
93683 598873
881657 710134
389313 380009
183511 655551
504223 887522
782938 563795
32553 314264
103356 335997
426694 357115
918717 857979
337235 508231
569026 76217
774369 807538
556969 438827
527358 846688
809248 175610
160815 403831
176966 649603
507787 662598
804570 163578
797348 361973
805285 152362
46895 239321
952663 280203
635797 177530
330779 34505
223586 6736
618908 797924
634999 39638
343917 237249
263540 189272
394858 256680
717159 624018
184115 771306
693166 910252
7257 991120
890797 104065
855659 731920
811083 170357
866295 999030
38813 56788
457292 548159
72286 11964
566826 106644
982774 972569
464154 944950
526730 932227
802560 392995
456438 151764
517164 570638
818315 116128
573998 576022
890289 918201
9302 991680
933381 136157
560107 387905
328418 101097
53978 803731
44464 887533
469876 331472
357144 990379
217081 134206
402502 919336
128402 981590
753105 726609
349644 503602
853166 573828
840043 596958
167694 431120
495319 94029
184869 910700
269389 918778
975226 974541
467533 298805
812042 96128
40376 490498
433628 610395
353699 934681
370365 851074
385097 150937
403779 850090
967112 540728
392495 447132
751381 539419
450373 259451
180493 601638
249798 448756
477462 726466
587149 908919
433630 706364
576779 175514
557259 71236
762413 287833
873052 109260
838099 671131
571087 39757
843786 406938
810694 708896
873596 820442
674132 328035
299624 610968
103401 425037
714751 45738
925639 306226
174985 58039
509284 447501
174244 909648
366543 546538
358260 609026
989897 445451
600805 300526
605840 871412
856979 87044
353193 538156
729887 320513
895716 653473
641949 645415
90979 545848
253259 828650
846346 37827
921252 982370
44254 600369
867308 550476
1751 144136
802249 562713
442645 10899
51834 248293
959640 87631
827237 380917
364798 967416
738702 844091
662948 669330
646003 454512
692620 839690
600743 882934
742585 644587
66323 952563
740250 878488
767991 819942
972525 20010
748406 919241
631603 405653
38739 155240
113133 950120
338227 791584
481863 442985
35327 938839
220771 511026
147023 540338
430676 490904
180901 477281
372884 209853
139962 71952
26469 140729
83969 780517
161536 3890
358355 431913
130989 571049
533805 946064
976928 532386
568889 435283
208244 878544
962392 516743
382064 452218
747023 409850
666288 995758
701466 883449
663264 58032
170729 512124
202449 371534
256222 990388
541588 965575
584738 646469
235678 635102
60593 425240
18183 49065
111519 854904
851900 356878
435491 263466
611124 15189
117997 893475
414981 74784
324684 781385
753688 554367
618602 300485
394458 348389
773402 294228
850262 648772
919061 628208
974522 532604
743578 766869
836986 507449
251743 623219
155176 953913
71870 597182
918817 911190
517553 893918
573414 999192
428310 528287
8824 294699
741814 231807
956783 959591
31529 255723
601682 487972
541320 683793
663785 707626
832050 72735
897013 984388
85221 567682
559274 707556
310870 564569
870592 576687
553189 76277
725842 751083
560496 651354
349475 964455
972137 623096
894857 78377
257754 96927
271905 555155
59130 812741
309769 735468
624452 224939
747174 593850
326594 720193
998046 106429
911891 41472
383098 839425
837752 825695
587763 743211
258611 586373
161404 554975
805390 935506
757886 239588
823731 814358
470049 25306
936780 357558
669388 176399
588843 15944
836847 624575
36867 31647
119073 885385
161395 434153
240995 811587
32668 584417
576231 613155
160618 63996
417104 796570
252310 234362
338202 34691
430302 652269
700161 263267
76876 363559
106447 894369
19765 181696
787153 174934
643022 540041
623598 643207
986118 653996
336504 724916
740001 839785
236415 390945
697044 600136
952175 999563
15408 581246
199499 430247
898732 105927
51642 889613
171990 604410
861602 599951
948989 642507
465857 704070
638189 765
92889 396235
413124 909499
384239 872034
660077 746808
470770 639996
220078 460709
662565 596957
265272 343629
419811 808310
396642 87176
849790 31920
258516 49471
181002 935662
679364 763087
497788 308662
624428 647338
275841 858909
842226 813618
213715 5579
602948 360125
913781 359213
253762 666734
817827 897585
882278 128178
966512 63247
57073 485526
11950 799434
222150 609576
820987 342888
564291 881065
356524 306255
158246 711445
257769 353766
468146 286512
476194 851402
797609 141331
358061 35420
635543 489846
471657 388853
583890 136436
622011 116860
991312 31556
96133 646720
744636 46487
802021 415903
230232 779693
841905 257817
870204 347518
769129 710822
28610 325732
712178 667909
443902 746384
568533 316410
995381 912344
98672 159463
423873 237194
258952 82176
58314 790210
770248 888206
343945 746642
344322 196290
348851 999305
375286 296830
795484 637751
194684 704839
655944 240446
821280 558653
250434 753446
676928 381418
392955 651301
274389 38244
70279 426794
380836 952083
759818 125556
446127 429941
148328 72371
339873 177
190994 990319
915192 268723
898690 125187
669180 654322
245089 743818
933158 739172
318123 747252
329677 588887
598879 179949
447490 966616
425065 646030
885403 98018
504474 984146
942354 488545
597362 772855
29674 918862
89455 451699
761870 276126
944211 252052
332773 489790
171219 676622
616721 965579
740461 153285
469045 161718
404785 11546
571373 997587
514289 577756
919160 253649
238031 266642
144232 625378
542110 26300
717338 475233
817015 596600
558856 503345
896380 779191
970952 888783
252818 959441
334481 429621
877690 26321
185038 982134
310653 98205
567201 853405
76528 444458
780694 531738
326379 654483
16038 821459
995700 566800
326406 830456
280356 687989
31750 597094
600288 91282
26805 622169
5037 139137
546335 559994
542330 855917
983772 886592
129907 670317
729912 932463
169220 997505
316738 445177
734045 950082
635504 626852
581294 894142
905508 652499
225372 675992
685991 272538
837161 167515
467791 189095
245947 681409
345366 20722
950897 390474
883251 681454
20636 702167
28543 756611
6263 720111
940383 935269
569228 657268
597664 618045
39361 124613
373140 231820
838129 450925
437112 895762
70158 459907
962148 78637
731532 414940
246772 509945
396633 927054
189856 964198
710521 428281
783441 126134
460147 883093
346033 727676
219612 43382
210099 23516
450892 509812
314099 769553
807676 536140
613645 47289
666519 185618
170401 294412
549663 980088
498488 786490
421842 707389
110436 730786
442142 173450
906732 918971
741975 612781
639696 354774
859748 520320
29066 515136
942420 109250
264419 678612
260295 980210
570299 221215
541009 594465
997717 515750
39125 504778
521513 9818
950415 847039
617260 82354
76861 681469
480326 949599
4431 241169
355106 190274
348053 847835
220149 77014
672946 964622
34432 102699
750807 297215
548709 900077
536621 334232
474161 470088
391209 656667
877646 276557
523760 387305
673405 703888
348511 208963
673046 339647
588584 261509
636885 720929
789444 555246
869251 706887
896494 782826
577155 305898
857473 836345
99979 275539
427614 418010
20363 987630
218132 636455
916985 129369
522746 968349
990195 631372
999923 675622
683583 518803
329694 290233
200500 451464
154405 342317
624564 554740
801682 422543
846386 621184
206775 946693
157314 180280
532176 410351
693348 451516
698855 376000
912516 328509
162479 507789
179277 942863
473827 954197
883817 557283
909740 557630
945848 453111
881277 611047
235896 823844
871484 902850
482211 10875
975959 524979
567632 360517
64019 170823
744092 122302
645380 842519
469438 19152
807291 219458
873697 890287
933298 235641
74841 347841
713047 95343
12574 476928
70519 303195
645567 779320
582690 210523
381775 441107
896867 341851
470531 542366
829265 374055
768365 819807
299850 640283
987602 892584
505731 531813
156993 901577
540200 606549
462936 271554
361732 825672
244148 131753
684087 833785
959635 672925
3144 519110
936865 864705
507524 284883
415673 990630
144138 931137
811851 323998
789439 383140
468263 430427
953168 95814
402908 258431
704358 391316
882899 318691
807675 523235
358909 632180
315902 604762
138661 120360
379159 723867
353964 447850
648666 522243
188693 426369
496186 876959
677472 607676
680348 891197
212279 299302
768521 94698
375788 980387
586620 286336
729337 642910
234671 468639
535932 221860
990232 922547
480556 149260
120406 928560
880146 87362
573470 22004
671247 371352
246540 936501
566956 77837
330081 482062
620526 940014
821100 476332
841408 907233
500032 617257
291402 632910
43860 782707
852646 50240
704016 511207
716623 486714
382341 134015
485628 401710
671864 155034
5706 39405
858194 628937
353552 907657
66904 178507
371003 498232
894658 426115
786195 387571
453350 417008
265709 827709
23598 175871
6297 916986
181402 856523
966983 197520
546864 777767
51525 979269
22965 203279
424346 898678
612001 157978
527401 966120
275125 158044
72976 966533
12380 622578
387558 906091
923929 899428
313502 373411
711083 262162
181028 622250
400305 114135
184989 274481
340700 164404
319635 175571
253715 128838
945759 800330
515031 478938
225322 31485
374608 902617
957840 118877
792007 696799
115566 15350
124167 991786
854897 62196
573369 684022
963130 605245
845567 764878
210869 671908
660895 389438
517575 697679
770013 941349
192766 518520
457980 414740
188331 769859
938835 500537
771186 313877
571269 290614
664017 604270
836940 357392
7092 799261
77969 237950
420135 487081
699775 26955
968385 993
220092 120505
534792 81236
803822 601553
608569 868659
128793 669075
344136 549366
619741 975739
474323 383316
61738 717720
860702 583155
789907 427144
43076 76872
422241 536830
898822 590676
600161 154294
829240 423202
290068 575015
326488 628973
331978 689778
138705 869670
907198 466553
175930 822136
719671 756253
215553 746639
80991 372491
472479 100421
507643 67700
504922 396698
316950 308059
490879 435009
164856 96358
260185 4871
767037 992568
283213 278107
294089 746022
941348 695057
995637 351657
611973 595072
271865 581586
437939 81136
370943 87361
111689 134803
177423 142543
313338 470858
300511 145395
389797 520847
69650 289111
309268 278764
329077 237848
599430 836013
446489 51885
234437 146997
802580 585210
912195 852550
297926 634760
850185 986891
417348 942187
161112 140850
719416 888029
444929 934942
618079 61298
449466 158045
375004 394490
856963 282909
732822 596015
919952 758527
666550 656481
39268 48502
402494 164582
449955 958449
740441 873658
683805 663595
575799 542771
229971 602067
61066 40075
721110 916094
346533 159309
542126 220533
978535 159950
761649 740586
988488 536078
579029 950682
359457 468093
715080 627922
581860 610200
870537 624711
252589 336202
630876 39304
582814 179254
881144 19398
314596 989627
678351 323600
256796 593556
296935 170438
343491 213506
912089 69119
241032 501600
733037 972307
491552 591393
680992 941954
811084 603805
370927 970596
123748 187078
691254 872188
427649 942312
384912 271650
430194 549129
593133 681711
271200 489756
671972 578360
838802 684319
346084 827082
516121 624622
792466 915424
956631 678065
975673 16066
819329 688574
663053 786646
614126 676150
21294 165895
616825 53390
344339 80920
371749 269551
128786 780948
453655 122244
450085 773195
196677 125059
280980 973006
751395 459946
523083 517160
57056 317700
53212 722286
624403 400620
728596 862927
494495 130627
840942 275740
921715 588700
21301 459496
673724 991757
664960 377543
577480 743678
890654 695017
560580 476769
799644 254101
681214 832863
110703 786381
699462 573534
819102 194680
222103 80696
552279 127933
626245 502609
781890 708957
653856 487747
366248 959676
963061 445950
145389 295098
83941 200165
796593 853099
967112 7064
819733 700739
316885 289554
410273 481337
298843 267191
527251 597927
842156 882528
768543 997105
462917 368694
33708 149469
630338 41086
701291 268037
159106 352914
438701 675935
160998 828591
952120 109755
868450 697545
729518 119729
706172 742366
170245 672127
728144 808032
283910 982408
473035 445384
956319 454855
422993 591076
552076 115979
382526 320723
36456 418726
11183 473707
195132 425974
515457 646758
411174 585755
601866 320912
836503 68954
36863 925440
45175 802802
810238 261068
78750 473464
808990 574977
131628 186994
96576 677690
988345 598165
126735 717744
749818 462077
893920 65512
836393 798903
504442 759241
208339 961147
928294 679275
968379 212187
452705 64069
255912 808490
851671 289101
866938 569388
8943 607304
580130 47318
507529 510718
440414 525073
616614 273017
734881 384794
363220 376148
747239 216038
909210 578095
481671 656466
669076 145549
199458 563825
847717 183527
906335 745114
167752 68123
998622 330673
726860 786905
469091 269353
186130 552216
247436 12004
397044 88538
409804 727551
361555 520261
482325 919500
656668 539027
187698 321430
979220 106035
505653 585711
899499 894852
138197 898843
279939 43326
811462 681593
263462 678913
880126 4582
97937 615890
762890 686488
560393 524996
554872 13849
449660 22513
602345 312855
574135 132423
595453 529727
913137 81567
213371 334404
372830 765271
691312 342166
134421 366261
490629 137090
341 245277
757987 215080
789114 194343
154323 790358
191103 928256
690829 368198
636121 325941
412412 557393
200302 854572
108804 105890
345856 800254
252708 986038
125880 568472
498448 681467
483051 218400
473065 284401
531960 322400
815300 749451
919730 134244
784602 727673
270927 846116
342182 955715
928614 882208
787039 955138
421957 944666
525238 792647
39628 487086
390807 152661
198119 373804
543557 388937
940651 519948
292028 302164
221345 180408
576582 932760
77 104108
3085 606386
416781 631579
83595 31510
367996 537191
489839 248610
334410 147956
229781 12986
636171 775699
160173 56610
158642 885243
511855 33568
472391 967147
64032 528723
599954 994635
538888 336872
720064 350238
603784 449239
683890 807069
955612 479927
622284 704850
198088 532137
905075 960241
836881 50485
661634 277982
963504 547635
502779 937952
642500 215655
655225 183219
805802 755813
703641 44770
738436 787569
554888 310550
126178 167721
502088 527698
979807 222045
816339 121822
952959 434083
483791 670591
705272 593327
996795 23707
159703 897434
273506 627545
841493 884546
772341 83080
399074 399025
301069 56113
541822 781538
793384 575871
871339 997168
204164 426026
180461 530764
289258 374217
830521 795232
723854 662911
533172 577200
229214 795567
497263 191857
938922 270250
799608 174759
844722 493764
373107 905957
532805 890330
232969 960094
895222 405137
765440 797756
628268 398695
880920 648062
744943 608910
80828 428261
584145 92938
811749 229880
130108 296249
400704 886527
208788 487175
134529 732663
210319 355895
83788 874248
980496 329424
655410 973930
63611 467758
311697 729016
284279 407402
765422 518696
983688 140030
403513 915307
851845 335222
413555 776161
790033 92728
691623 86260
145715 35883
566219 400055
10059 921227
923847 895477
398335 184399
208358 890116
275415 562590
628653 70219
559455 774516
841077 65615
769487 836391
302641 111653
522220 123870
408756 323817
392792 897705
457527 856940
992990 912047
96424 497219
434196 943608
282504 829136
504179 858778
615491 129127
425009 344116
978427 777345
528464 238732
349460 420702
64609 945600
370590 631716
29090 787837
17057 808058
583596 819470
45653 554516
519788 336793
891650 643159
685798 457458
903135 349693
849358 261601
587637 208594
90044 439884
149794 84145
782105 165990
746004 899850
434183 836906
92449 540872
113374 173544
665218 209777
332258 162563
342798 921997
680432 938194
215219 818266
314323 688518
651091 230454
74678 416931
838557 774154
890024 111852
831727 518195
17489 392393
347014 900560
780308 639614
388250 781337
992035 730823
225804 68069
477632 875365
108822 647605
791704 953289
957006 512784
528150 328677
162315 238668
91261 323631
599301 468736
980539 770466
498956 898302
33759 935923
562311 229246
722563 800662
385113 582446
487681 805991
247558 693271
959680 659708
693046 34116
360516 940203
570446 479488
40665 863730
818365 37729
963729 78084
5575 436615
423000 921782
388085 511194
564064 63217
395209 996557
794321 922085
765731 982549
825475 740094
117774 980187
476815 501825
92455 712699
585085 639782
865451 292777
587958 163858
188128 110887
469001 857434
209486 639545
53045 431080
601642 501834
652635 893447
809449 636052
327658 295919
850805 341432
221195 580660
195633 21659
76443 287860
218318 389444
876704 119859
218130 755920
21020 377616
825404 732183
777616 490959
442084 483518
797216 155903
563739 731097
210056 24404
191395 112813
493089 385003
517370 885040
797147 120086
842877 291712
119881 309972
578672 795984
694500 543733
26051 798319
475768 19959
131927 689632
513364 313755
685566 923253
631998 486493
353766 479135
735699 649203
298316 710239
882835 175855
595510 14697
966243 307847
613200 947274
180334 951363
862017 493782
987187 600868
702011 814996
805293 41371
788604 845941
523124 37054
467317 660222
524269 199900
517228 960284
492045 508637
261707 898651
178239 761822
201759 978994
250164 605824
997673 992050
444893 846282
1569 240572
813177 476767
623313 529544
526725 720461
367455 683503
784780 62062
723139 169275
793429 781617
255553 969948
945645 812130
793386 108806
980144 891034
271859 344304
598444 379641
954408 336754
667238 544800
923220 771264
959627 494807
677486 899232
301410 709293
286985 435434
273609 470034
668468 314196
186473 758800
916176 21384
873256 139210
674809 579124
837843 242272
57793 662895
883213 280906
50923 691566
991089 451850
688383 32280
141540 922398
816419 44037
811550 954516
698892 13341
632226 366107
938380 738012
961727 958792
367739 790426
281770 947618
242927 776285
689452 614394
328631 331335
588981 376150
424687 381198
237377 515010
866598 585407
139874 389114
580340 597429
621374 417138
655175 682236
306512 108107
1372 249658
389058 779516
263126 923285
866368 126763
494836 140614
147802 899947
273440 897415
132467 637751
833002 728770
221204 530009
197119 665192
597751 912557
664659 262112
401674 135367
962944 15331
892846 318701
53415 913421
952017 277899
771691 752072
991313 551837
761896 985545
120702 512799
885865 661116
936968 964915
766059 804599
532918 294447
447202 746695
239313 248474
172674 281821
920751 526624
68728 400449
495974 703862
14458 159647
390779 930466
143858 943199
161688 602228
247677 985045
529994 822268
340390 496343
610761 18885
534587 985507
986738 821339
656218 752012
976043 201584
693261 948455
690197 664770
760647 590710
253136 703634
805429 483765
488432 988875
33108 970915
277229 659943
996585 139803
936607 539649
120135 245463
669621 995437
53873 471294
164789 892016
797522 704362
481791 787596
46810 591616
755367 208832
613695 94351
521963 122670
323569 260157
301779 919411
803863 1955
600769 21861
891370 965996
883585 982700
608483 646149
439084 476999
717364 141387
323625 548815
347609 359643
167024 662329
153661 742621
342551 533995
952119 286187
328227 98609
507590 583393
42134 422100
890581 449442
669477 375722
924607 214794
283087 79272
95772 287646
113550 221575
371682 948178
855332 407500
832147 293018
451662 970700
706572 892135
253063 44669
929651 874522
242593 677514
950967 459105
975305 603919
610428 614215
528177 981478
711355 728059
415459 116686
361069 856532
843650 548068
327136 382842
961255 867512
219911 409253
963798 852871
306358 443599
171285 644058
660545 889472
120658 127176
637875 247506
195665 938237
283315 38068
521324 178983
510665 289959
301000 916008
230158 792550
384716 537526
674419 90262
614256 784108
902264 913047
866289 400199
524471 636588
327491 855111
202405 469709
412335 69712
890215 599418
651536 566001
942137 951319
70586 64549
555996 290694
710985 342651
96099 75516
198748 979864
759535 523499
342303 270681
563338 253521
876413 412664
665919 515559
411833 162209
559233 495581
602529 446072
301375 721534
758835 977569
692488 660058
577050 816175
109479 137626
63710 912206
473319 813716
76458 763387
702829 938631
940035 886312
669933 667794
486322 141158
287752 530913
35293 248503
322841 406686
488125 932080
688604 797496
810382 299985
169098 761702
51743 463114
832035 645340
396284 749184
676980 113211
995211 760457
669774 893117
522339 706330
102408 116257
98209 728497
907596 420416
901123 543134
325183 397024
147951 570004
53848 324390
482820 769298
488138 777578
327091 1925
558580 162227
95737 572088
796443 371217
519148 925419
698074 806097
945056 32962
273031 662906
722105 507803
895544 177942
985822 790950
899905 909195
520560 498795
47092 993862
639000 390547
660114 884057
199327 799805
516329 516060
622898 699247
993654 963499
969050 228390
115835 992335
18486 385719
963553 918716
370062 338365
876654 737185
265579 909235
28476 307240
97411 472067
432374 544198
821762 801763
831843 27519
542440 631332
993360 392194
524065 666942
56551 640983
110439 294856
136322 366642
131626 729257
374477 418452
165653 89302
969093 404699
974893 227296
63580 821566
91468 93051
437952 395201
952306 848631
146366 348367
716387 279947
357029 16426
480566 705858
570710 552456
736526 793775
993078 200703
811243 67333
743105 337504
375075 621081
585981 944740
563290 197871
53071 772062
118113 424748
367637 167658
390852 175454
296083 661980
778583 18703
586800 815298
246146 503566
636500 147441
553114 291009
327009 377516
613124 819605
900616 353944
579490 577791
146496 228199
705948 863294
180414 557667
178882 356787
368396 649730
498409 938789
15953 193067
113165 603132
843711 241956
99704 136165
478276 241289
520392 794245
671042 210785
537242 954269
745481 345280
206799 32476
105024 441148
885195 199249
735299 451037
347538 523375
333507 537305
170115 84937
626121 946775
779977 894077
678984 874066
293571 670547
201389 610594
267971 151234
413722 492438
52605 404433
718474 299100
237071 466889
645027 90132
747410 717285
41578 413295
403145 738302
265715 316435
978245 142830
748144 761007
408874 350528
581679 437193
715271 571800
905333 152443
905844 978342
621823 869877
700149 172452
115389 379855
514660 506613
970332 330639
924621 613561
924740 284041
327484 306758
850438 267360
151254 424040
640905 404286
945526 964742
816769 868524
455376 440937
486965 234582
95381 102413
