1000
588096 623009
71908 995674
955312 581053
74330 545111
520717 934669
683801 249399
206617 314691
82129 239221
278549 172483
575552 87295
231280 213538
308462 542415
242925 728860
718304 588296
941965 211577
385307 511731
717350 160427
702138 83523
94481 209214
875597 254328
156964 790940
1803 297363
819876 328204
176299 744978
437358 525919
180961 762392
699593 562653
761259 490212
116747 489364
761417 935640
200208 460595
369774 625481
634119 571651
821213 476796
269805 60261
151035 43414
861133 374327
733952 122278
82524 383331
928941 134073
566960 653957
102522 285463
987843 278645
426039 172170
753105 541525
377600 739967
330745 93158
645751 39020
843245 695787
600090 44350
340649 278938
808881 428866
662995 214058
13068 281563
869811 3338
356318 837148
142547 585108
342348 768654
470555 344921
964635 939469
506834 550236
125551 473508
581037 929530
884147 682492
490339 279899
260423 590152
40005 857359
520650 832354
784797 220395
747313 890306
569929 217166
347740 568622
843333 694833
71812 471358
337655 979725
884545 242065
861032 461962
559105 324412
412076 767401
869681 483518
797641 652138
590339 632020
641093 438583
256562 503045
64749 145156
190997 193728
987895 484853
253742 429965
976442 629061
876997 8314
938133 400026
146271 358036
461872 428188
630246 932489
768755 884916
461308 944968
542290 696601
149808 679697
951333 648123
414828 962960
624425 288368
143683 62294
373488 447306
275350 819574
330356 658987
215820 777389
505651 642260
37852 23160
870185 336022
756156 579531
312210 594678
354406 593437
460134 970113
622817 36592
490410 694076
709670 835947
707003 83520
591578 939338
627001 489583
542076 548529
247407 571961
678119 843348
869307 612394
869944 725190
359576 786093
188036 132016
506517 122
708528 179321
337314 726317
683686 650781
375876 611169
204510 269547
946178 56358
298111 548412
635743 461543
584492 396147
68170 600214
535864 416920
445070 818413
451737 114683
8047 748158
903200 174912
505045 396219
171571 859140
537183 963484
381396 377372
802274 126480
934250 8151
767374 2992
952679 56807
829480 690189
231174 980042
111803 505417
746866 382431
804146 22573
697689 737083
864492 71475
545921 898498
704073 958789
928239 961208
956708 401575
549888 307215
62481 54567
231944 86724
506197 560382
667310 761815
540927 740945
914333 445510
905776 378890
262654 380077
599080 634058
108186 2894
750297 699624
618080 874112
878965 904182
732452 963065
318425 842388
924748 105177
542458 577328
999525 499656
339511 681831
401836 416306
628092 167368
448940 481091
185196 267747
330440 565011
758459 911211
888263 573100
511377 773889
870524 328044
214899 580295
634299 251778
20888 420232
709399 260348
966328 54768
986174 887082
43601 280896
999763 883866
216384 14226
623358 87005
65324 953557
517366 193668
779803 231591
594513 618141
376971 421637
809935 229447
305701 911492
14792 511159
596724 730040
849579 255721
411381 999720
986300 597520
873321 878529
976387 574784
290692 57764
828382 786721
204569 864313
570013 631973
211002 561127
959188 858239
378457 463355
461010 583132
444438 966136
982589 673160
777401 421245
796462 129692
205854 914680
947439 194582
302591 625383
975952 381488
406939 248425
869323 491681
577986 694371
497476 454129
779402 181766
466421 889600
621258 244178
216578 547435
690403 471670
597948 903352
689470 701791
134823 141655
218006 899237
125081 407893
357736 322227
59351 370110
456148 607320
367047 275855
716992 207620
843051 31542
848851 77129
322380 781895
904137 438581
697644 604449
763257 832925
639774 338320
847477 900190
165128 132647
349237 565973
697915 774329
156567 670730
776056 235636
662164 83788
253245 409534
957299 417719
521777 277846
397281 508191
9998 294592
37971 428066
104054 593396
903081 606559
718922 29639
180035 610746
799281 510033
59386 275833
620657 323005
32011 114661
130751 771919
888970 824818
839589 858331
635783 943932
4801 10708
52022 437530
9258 60409
198413 299861
979652 460267
843602 952575
204125 781173
311353 801604
467928 779124
153777 166577
333914 73567
761781 313807
759770 117354
38084 349220
982353 960109
895644 936658
45555 69439
260835 801032
947924 480618
405925 532096
942709 865728
524745 216756
822706 2543
21351 534802
613892 369446
502041 511892
394025 3892
759065 593927
742394 690110
719678 473673
959582 281694
50493 648747
500357 968773
562014 379173
750468 605523
113678 701818
747129 368002
831263 340726
980144 913001
665768 361887
695645 76217
842865 324733
804443 438905
796556 502213
838053 358035
89853 914298
991470 232209
580924 151495
286753 95468
113262 762560
832984 920260
513343 16658
280889 354250
236442 669390
860013 133093
416352 799712
458184 358412
926592 914299
282158 449995
351267 991081
37565 98512
672189 514646
712655 976879
605708 635826
98252 842850
774354 564361
476890 140432
236396 382165
640712 273412
339627 239902
692571 861638
241219 824441
447149 246046
657004 77068
559091 382856
37606 155693
272611 520880
937710 477995
123429 533441
633630 552725
306661 259970
536824 564860
740697 825777
700868 17006
109048 644252
424747 359746
182783 514291
158257 98872
432850 273523
288158 727385
979735 751950
963383 673102
105896 110107
346275 346399
299549 776469
806584 321575
393324 224549
531297 176331
209692 827097
947004 56962
996480 527975
305803 880550
803524 741136
264043 348329
348590 730879
434917 557260
55639 416036
391235 184778
292800 427422
280417 746949
75758 669605
372763 339072
524327 533287
139322 157012
419540 718628
641412 50987
682078 192413
15757 313841
400312 460284
291795 417804
985424 669971
499542 718704
323703 226242
407703 621777
506029 719864
654484 316574
498125 930708
602084 368071
453581 739729
864237 70609
865048 886574
870494 830888
865350 343184
138101 7113
198581 940290
348354 457007
74232 633211
391773 723480
831127 481810
377068 170256
744975 658157
96406 802820
185726 736465
426582 518580
936015 72331
722352 455798
864004 555898
917502 955539
482301 192630
115497 636835
293508 795666
833084 815658
73694 84785
501746 984379
134178 157436
792639 797771
662250 646286
251554 109
71240 96183
491250 149893
820291 260577
544934 365295
787134 524535
736915 522884
160383 555403
724885 615159
989963 5623
30507 243744
989655 100060
714955 615825
43689 455041
891143 695802
233113 128647
715998 420417
282098 42790
212097 758677
50721 723634
786472 614226
144589 726239
284780 384207
566844 125819
203528 234626
698481 98288
31381 262135
800738 927543
579503 109721
355172 809595
48961 744032
200818 549430
541626 885033
291719 378465
419450 258973
97643 841048
994965 576962
420831 760807
396446 690736
320218 821072
444559 922215
204223 875900
172987 86310
18091 254780
354568 375227
10802 108114
284997 938736
632630 943965
578406 546227
681558 684417
601614 728516
86393 434035
904819 12067
423807 422031
660567 915908
599732 579150
804159 329319
657603 560941
920841 247898
503674 868240
115562 464167
121746 253118
481990 866786
217931 704496
875917 512626
791429 805745
386924 795404
309633 475794
193086 773359
948421 504502
148588 938209
579885 156121
966327 86222
492739 744710
795307 828581
556214 495330
182154 854575
982422 783704
527876 986415
546074 712421
328160 567327
393779 683187
107101 152458
402221 18745
323499 237222
731054 839510
22233 861425
9860 538302
478585 812557
539445 474479
416028 358193
983064 906108
170126 376799
557838 934780
421166 287281
380318 750448
985006 755593
476225 173199
471750 666467
794442 469696
327900 614567
216449 835743
104780 823474
987643 367854
967881 103777
988227 857789
419513 437507
309339 508581
677740 62606
576299 218380
985232 234680
905178 885557
376333 262213
436178 310263
672594 73370
30808 82594
942849 795572
876200 762607
261790 321846
293800 260377
960449 836342
358107 807530
982357 713810
618976 279816
296488 963232
901785 34914
328341 901500
235888 67673
660423 954292
441257 5506
397263 163080
242457 437941
937460 917431
806056 431085
257332 283270
319470 418943
67811 635048
95660 333617
942640 892232
756808 609138
26666 786809
621486 648962
41567 33299
204091 86145
807115 940296
801341 3940
831886 897494
478443 441199
301306 78124
28228 699119
689228 486469
294484 621401
867093 77860
901923 814184
171512 466906
202835 6451
843168 398445
949757 637502
152578 45105
619628 252403
860377 819374
508007 932220
298502 371623
944073 747379
855083 633040
515236 92213
885982 228014
17221 664203
605644 313923
198186 706609
443993 76381
906401 227022
713354 512730
679853 777936
811393 912981
248406 454226
882785 234304
182079 910064
806844 844477
724438 195439
394655 392823
645279 158161
407415 938916
452526 29998
532942 175226
412442 6671
173735 704392
73493 366176
338368 217974
269807 628632
72209 57589
448248 851645
810581 281977
467605 607770
377595 599900
801186 231776
70332 422665
38909 45028
6840 359766
251609 270753
386222 39359
167522 173661
428325 663618
125923 237005
549480 787211
995635 786365
494433 520421
922618 867264
81298 523136
686447 878043
462244 179264
856457 155687
78235 962594
33189 171673
217521 66279
274080 469357
708940 917710
135055 569110
808581 762249
434208 234766
999491 954081
473829 321400
731870 616425
165228 760345
740903 266290
625082 682635
631073 212862
150823 2959
494556 806777
419362 374890
563350 201429
478017 372853
818039 716173
784905 836228
187557 963942
43680 673268
317573 389623
555867 459307
654819 100789
930318 758842
430648 286124
640949 380459
771465 629002
240109 614049
44744 517049
661456 609746
555230 178482
604989 315457
832933 384133
358116 864060
279042 2184
678180 234418
313061 227189
741186 683813
525777 327816
629185 186233
279913 776418
592695 714176
596316 865905
46504 940857
2331 299264
151977 647358
374938 584018
423252 603287
213001 265334
117156 442163
150033 827519
991509 216997
615430 750632
324198 626625
992500 694115
398157 143061
74053 142018
252624 265042
181199 795417
204369 683797
25102 552632
529041 287949
97305 488440
193815 812100
604235 611466
188161 393937
780335 109447
343049 396788
162939 494060
228539 396539
659414 171511
295254 405086
538271 242472
851865 310799
507447 788984
963814 549134
177052 540688
21012 261445
511750 767250
285509 163452
912753 859404
419396 494319
780553 980990
560865 509933
965777 139715
618048 199479
374198 442908
354796 749481
600816 608767
530001 217273
658115 203862
835322 846969
573559 424100
395537 690926
393755 371564
645990 554420
343953 894985
148336 605532
208937 627840
383254 486296
267200 124961
11463 150491
439603 933152
223628 402639
724630 674891
309144 555626
932168 889579
231647 476678
903915 510738
911771 349100
621245 32823
566926 726308
913077 562357
585403 6568
991111 95513
527477 789814
839101 200579
910932 561879
248295 225553
615748 651954
70217 119778
779557 47821
906481 374433
794760 133396
473370 365279
715721 881513
97601 51529
362784 632412
632511 901335
365843 120381
370868 886458
215865 627255
366373 534409
697579 246994
595466 756008
928889 212463
127948 774817
928262 795972
195272 418136
96575 204518
191731 400259
835471 427415
99143 879035
930905 791332
919119 310773
673693 756801
24868 101149
618621 615783
686765 956700
506488 316010
841497 66622
525492 129437
899629 463619
730136 894156
643587 456451
766867 995898
321327 829186
514119 940058
888089 872064
251226 451746
539990 384379
935310 212419
266512 501364
722468 511341
787676 858409
931785 879929
948983 45257
872563 889332
863721 578784
180855 367704
49761 982782
552967 888246
104390 662071
302049 193629
458993 475877
208879 796797
151261 332440
14360 287438
721415 30741
713580 254059
872670 274580
508244 292004
438390 847802
31365 173395
712380 648915
697899 375344
11586 479363
537537 887285
65401 585728
434868 306933
420226 258819
21428 274172
548480 640405
837868 838201
892851 673548
395733 58101
315189 177152
147913 872596
384703 800598
534133 789994
828892 265945
921301 917220
330779 982540
567612 847885
637805 900346
475062 681060
209364 246258
336797 702854
880465 538272
198306 93025
822834 101562
897493 936699
155207 373137
59841 300803
737296 310623
77861 386709
844583 994228
808557 236879
711988 238473
79549 418168
897610 596117
366630 628242
466053 111474
818284 852368
997434 673634
662436 6988
56200 523308
57234 463824
285362 76859
318364 320471
845333 180186
311163 51922
564783 892942
484576 768502
261526 770271
896997 289351
367750 686297
828469 4376
416073 662738
269328 956670
677395 625581
112653 954687
84556 487266
576101 941402
466582 451273
325240 831568
83325 558389
197577 265423
517742 199033
802659 394748
189983 591783
992727 545210
539795 167012
911025 79340
576641 479742
208046 393883
832005 715974
888944 473129
942266 615888
442738 850994
236803 373445
172143 700050
627600 135332
649911 562575
768636 218838
723206 591248
516015 805633
694577 230074
134682 439429
282864 213831
102822 178249
471047 574235
771168 500494
14278 998164
904359 231378
419706 739638
162973 668480
227035 199063
683135 910772
685164 340263
660084 911070
343953 325685
558240 997000
168922 851175
640502 626056
629078 846473
906523 430227
618663 566291
299380 710886
599371 677363
437013 346447
218765 918078
354070 554594
64000 293180
677589 830725
631411 898526
433907 399419
490683 102697
271388 256726
676500 204429
752597 680600
59324 532197
767557 486901
705022 242175
942922 443304
304383 929133
102368 879348
44806 518343
231366 809443
440123 264658
766071 191735
397752 540664
886461 486647
555686 833657
954009 972035
662147 577595
740222 785382
670057 867520
299028 508815
165629 153649
955374 474164
55644 590063
516394 578950
109405 880558
917126 669092
628238 356902
791131 937165
292357 576872
88634 380677
785675 825876
442723 973825
828553 341857
967204 811663
227243 415033
784687 785343
115776 152558
732059 630452
697357 580625
23588 278819
279636 568157
619019 996771
958493 245475
738959 412723
867919 89010
956394 785982
71236 680493
